*Heading
File generated by TexGen v3.13.1
************
*** MESH ***
************
*Node
1, -0.5, -0.5, -0.01
2, -0.4375, -0.5, -0.01
3, -0.375, -0.5, -0.01
4, -0.3125, -0.5, -0.01
5, -0.25, -0.5, -0.01
6, -0.1875, -0.5, -0.01
7, -0.125, -0.5, -0.01
8, -0.0625, -0.5, -0.01
9, 0, -0.5, -0.01
10, 0.0625, -0.5, -0.01
11, 0.125, -0.5, -0.01
12, 0.1875, -0.5, -0.01
13, 0.25, -0.5, -0.01
14, 0.3125, -0.5, -0.01
15, 0.375, -0.5, -0.01
16, 0.4375, -0.5, -0.01
17, 0.5, -0.5, -0.01
18, 0.5625, -0.5, -0.01
19, 0.625, -0.5, -0.01
20, 0.6875, -0.5, -0.01
21, 0.75, -0.5, -0.01
22, 0.8125, -0.5, -0.01
23, 0.875, -0.5, -0.01
24, 0.9375, -0.5, -0.01
25, 1, -0.5, -0.01
26, 1.0625, -0.5, -0.01
27, 1.125, -0.5, -0.01
28, 1.1875, -0.5, -0.01
29, 1.25, -0.5, -0.01
30, 1.3125, -0.5, -0.01
31, 1.375, -0.5, -0.01
32, 1.4375, -0.5, -0.01
33, 1.5, -0.5, -0.01
34, -0.5, -0.4375, -0.01
35, -0.4375, -0.4375, -0.01
36, -0.375, -0.4375, -0.01
37, -0.3125, -0.4375, -0.01
38, -0.25, -0.4375, -0.01
39, -0.1875, -0.4375, -0.01
40, -0.125, -0.4375, -0.01
41, -0.0625, -0.4375, -0.01
42, 0, -0.4375, -0.01
43, 0.0625, -0.4375, -0.01
44, 0.125, -0.4375, -0.01
45, 0.1875, -0.4375, -0.01
46, 0.25, -0.4375, -0.01
47, 0.3125, -0.4375, -0.01
48, 0.375, -0.4375, -0.01
49, 0.4375, -0.4375, -0.01
50, 0.5, -0.4375, -0.01
51, 0.5625, -0.4375, -0.01
52, 0.625, -0.4375, -0.01
53, 0.6875, -0.4375, -0.01
54, 0.75, -0.4375, -0.01
55, 0.8125, -0.4375, -0.01
56, 0.875, -0.4375, -0.01
57, 0.9375, -0.4375, -0.01
58, 1, -0.4375, -0.01
59, 1.0625, -0.4375, -0.01
60, 1.125, -0.4375, -0.01
61, 1.1875, -0.4375, -0.01
62, 1.25, -0.4375, -0.01
63, 1.3125, -0.4375, -0.01
64, 1.375, -0.4375, -0.01
65, 1.4375, -0.4375, -0.01
66, 1.5, -0.4375, -0.01
67, -0.5, -0.375, -0.01
68, -0.4375, -0.375, -0.01
69, -0.375, -0.375, -0.01
70, -0.3125, -0.375, -0.01
71, -0.25, -0.375, -0.01
72, -0.1875, -0.375, -0.01
73, -0.125, -0.375, -0.01
74, -0.0625, -0.375, -0.01
75, 0, -0.375, -0.01
76, 0.0625, -0.375, -0.01
77, 0.125, -0.375, -0.01
78, 0.1875, -0.375, -0.01
79, 0.25, -0.375, -0.01
80, 0.3125, -0.375, -0.01
81, 0.375, -0.375, -0.01
82, 0.4375, -0.375, -0.01
83, 0.5, -0.375, -0.01
84, 0.5625, -0.375, -0.01
85, 0.625, -0.375, -0.01
86, 0.6875, -0.375, -0.01
87, 0.75, -0.375, -0.01
88, 0.8125, -0.375, -0.01
89, 0.875, -0.375, -0.01
90, 0.9375, -0.375, -0.01
91, 1, -0.375, -0.01
92, 1.0625, -0.375, -0.01
93, 1.125, -0.375, -0.01
94, 1.1875, -0.375, -0.01
95, 1.25, -0.375, -0.01
96, 1.3125, -0.375, -0.01
97, 1.375, -0.375, -0.01
98, 1.4375, -0.375, -0.01
99, 1.5, -0.375, -0.01
100, -0.5, -0.3125, -0.01
101, -0.4375, -0.3125, -0.01
102, -0.375, -0.3125, -0.01
103, -0.3125, -0.3125, -0.01
104, -0.25, -0.3125, -0.01
105, -0.1875, -0.3125, -0.01
106, -0.125, -0.3125, -0.01
107, -0.0625, -0.3125, -0.01
108, 0, -0.3125, -0.01
109, 0.0625, -0.3125, -0.01
110, 0.125, -0.3125, -0.01
111, 0.1875, -0.3125, -0.01
112, 0.25, -0.3125, -0.01
113, 0.3125, -0.3125, -0.01
114, 0.375, -0.3125, -0.01
115, 0.4375, -0.3125, -0.01
116, 0.5, -0.3125, -0.01
117, 0.5625, -0.3125, -0.01
118, 0.625, -0.3125, -0.01
119, 0.6875, -0.3125, -0.01
120, 0.75, -0.3125, -0.01
121, 0.8125, -0.3125, -0.01
122, 0.875, -0.3125, -0.01
123, 0.9375, -0.3125, -0.01
124, 1, -0.3125, -0.01
125, 1.0625, -0.3125, -0.01
126, 1.125, -0.3125, -0.01
127, 1.1875, -0.3125, -0.01
128, 1.25, -0.3125, -0.01
129, 1.3125, -0.3125, -0.01
130, 1.375, -0.3125, -0.01
131, 1.4375, -0.3125, -0.01
132, 1.5, -0.3125, -0.01
133, -0.5, -0.25, -0.01
134, -0.4375, -0.25, -0.01
135, -0.375, -0.25, -0.01
136, -0.3125, -0.25, -0.01
137, -0.25, -0.25, -0.01
138, -0.1875, -0.25, -0.01
139, -0.125, -0.25, -0.01
140, -0.0625, -0.25, -0.01
141, 0, -0.25, -0.01
142, 0.0625, -0.25, -0.01
143, 0.125, -0.25, -0.01
144, 0.1875, -0.25, -0.01
145, 0.25, -0.25, -0.01
146, 0.3125, -0.25, -0.01
147, 0.375, -0.25, -0.01
148, 0.4375, -0.25, -0.01
149, 0.5, -0.25, -0.01
150, 0.5625, -0.25, -0.01
151, 0.625, -0.25, -0.01
152, 0.6875, -0.25, -0.01
153, 0.75, -0.25, -0.01
154, 0.8125, -0.25, -0.01
155, 0.875, -0.25, -0.01
156, 0.9375, -0.25, -0.01
157, 1, -0.25, -0.01
158, 1.0625, -0.25, -0.01
159, 1.125, -0.25, -0.01
160, 1.1875, -0.25, -0.01
161, 1.25, -0.25, -0.01
162, 1.3125, -0.25, -0.01
163, 1.375, -0.25, -0.01
164, 1.4375, -0.25, -0.01
165, 1.5, -0.25, -0.01
166, -0.5, -0.1875, -0.01
167, -0.4375, -0.1875, -0.01
168, -0.375, -0.1875, -0.01
169, -0.3125, -0.1875, -0.01
170, -0.25, -0.1875, -0.01
171, -0.1875, -0.1875, -0.01
172, -0.125, -0.1875, -0.01
173, -0.0625, -0.1875, -0.01
174, 0, -0.1875, -0.01
175, 0.0625, -0.1875, -0.01
176, 0.125, -0.1875, -0.01
177, 0.1875, -0.1875, -0.01
178, 0.25, -0.1875, -0.01
179, 0.3125, -0.1875, -0.01
180, 0.375, -0.1875, -0.01
181, 0.4375, -0.1875, -0.01
182, 0.5, -0.1875, -0.01
183, 0.5625, -0.1875, -0.01
184, 0.625, -0.1875, -0.01
185, 0.6875, -0.1875, -0.01
186, 0.75, -0.1875, -0.01
187, 0.8125, -0.1875, -0.01
188, 0.875, -0.1875, -0.01
189, 0.9375, -0.1875, -0.01
190, 1, -0.1875, -0.01
191, 1.0625, -0.1875, -0.01
192, 1.125, -0.1875, -0.01
193, 1.1875, -0.1875, -0.01
194, 1.25, -0.1875, -0.01
195, 1.3125, -0.1875, -0.01
196, 1.375, -0.1875, -0.01
197, 1.4375, -0.1875, -0.01
198, 1.5, -0.1875, -0.01
199, -0.5, -0.125, -0.01
200, -0.4375, -0.125, -0.01
201, -0.375, -0.125, -0.01
202, -0.3125, -0.125, -0.01
203, -0.25, -0.125, -0.01
204, -0.1875, -0.125, -0.01
205, -0.125, -0.125, -0.01
206, -0.0625, -0.125, -0.01
207, 0, -0.125, -0.01
208, 0.0625, -0.125, -0.01
209, 0.125, -0.125, -0.01
210, 0.1875, -0.125, -0.01
211, 0.25, -0.125, -0.01
212, 0.3125, -0.125, -0.01
213, 0.375, -0.125, -0.01
214, 0.4375, -0.125, -0.01
215, 0.5, -0.125, -0.01
216, 0.5625, -0.125, -0.01
217, 0.625, -0.125, -0.01
218, 0.6875, -0.125, -0.01
219, 0.75, -0.125, -0.01
220, 0.8125, -0.125, -0.01
221, 0.875, -0.125, -0.01
222, 0.9375, -0.125, -0.01
223, 1, -0.125, -0.01
224, 1.0625, -0.125, -0.01
225, 1.125, -0.125, -0.01
226, 1.1875, -0.125, -0.01
227, 1.25, -0.125, -0.01
228, 1.3125, -0.125, -0.01
229, 1.375, -0.125, -0.01
230, 1.4375, -0.125, -0.01
231, 1.5, -0.125, -0.01
232, -0.5, -0.0625, -0.01
233, -0.4375, -0.0625, -0.01
234, -0.375, -0.0625, -0.01
235, -0.3125, -0.0625, -0.01
236, -0.25, -0.0625, -0.01
237, -0.1875, -0.0625, -0.01
238, -0.125, -0.0625, -0.01
239, -0.0625, -0.0625, -0.01
240, 0, -0.0625, -0.01
241, 0.0625, -0.0625, -0.01
242, 0.125, -0.0625, -0.01
243, 0.1875, -0.0625, -0.01
244, 0.25, -0.0625, -0.01
245, 0.3125, -0.0625, -0.01
246, 0.375, -0.0625, -0.01
247, 0.4375, -0.0625, -0.01
248, 0.5, -0.0625, -0.01
249, 0.5625, -0.0625, -0.01
250, 0.625, -0.0625, -0.01
251, 0.6875, -0.0625, -0.01
252, 0.75, -0.0625, -0.01
253, 0.8125, -0.0625, -0.01
254, 0.875, -0.0625, -0.01
255, 0.9375, -0.0625, -0.01
256, 1, -0.0625, -0.01
257, 1.0625, -0.0625, -0.01
258, 1.125, -0.0625, -0.01
259, 1.1875, -0.0625, -0.01
260, 1.25, -0.0625, -0.01
261, 1.3125, -0.0625, -0.01
262, 1.375, -0.0625, -0.01
263, 1.4375, -0.0625, -0.01
264, 1.5, -0.0625, -0.01
265, -0.5, 0, -0.01
266, -0.4375, 0, -0.01
267, -0.375, 0, -0.01
268, -0.3125, 0, -0.01
269, -0.25, 0, -0.01
270, -0.1875, 0, -0.01
271, -0.125, 0, -0.01
272, -0.0625, 0, -0.01
273, 0, 0, -0.01
274, 0.0625, 0, -0.01
275, 0.125, 0, -0.01
276, 0.1875, 0, -0.01
277, 0.25, 0, -0.01
278, 0.3125, 0, -0.01
279, 0.375, 0, -0.01
280, 0.4375, 0, -0.01
281, 0.5, 0, -0.01
282, 0.5625, 0, -0.01
283, 0.625, 0, -0.01
284, 0.6875, 0, -0.01
285, 0.75, 0, -0.01
286, 0.8125, 0, -0.01
287, 0.875, 0, -0.01
288, 0.9375, 0, -0.01
289, 1, 0, -0.01
290, 1.0625, 0, -0.01
291, 1.125, 0, -0.01
292, 1.1875, 0, -0.01
293, 1.25, 0, -0.01
294, 1.3125, 0, -0.01
295, 1.375, 0, -0.01
296, 1.4375, 0, -0.01
297, 1.5, 0, -0.01
298, -0.5, 0.0625, -0.01
299, -0.4375, 0.0625, -0.01
300, -0.375, 0.0625, -0.01
301, -0.3125, 0.0625, -0.01
302, -0.25, 0.0625, -0.01
303, -0.1875, 0.0625, -0.01
304, -0.125, 0.0625, -0.01
305, -0.0625, 0.0625, -0.01
306, 0, 0.0625, -0.01
307, 0.0625, 0.0625, -0.01
308, 0.125, 0.0625, -0.01
309, 0.1875, 0.0625, -0.01
310, 0.25, 0.0625, -0.01
311, 0.3125, 0.0625, -0.01
312, 0.375, 0.0625, -0.01
313, 0.4375, 0.0625, -0.01
314, 0.5, 0.0625, -0.01
315, 0.5625, 0.0625, -0.01
316, 0.625, 0.0625, -0.01
317, 0.6875, 0.0625, -0.01
318, 0.75, 0.0625, -0.01
319, 0.8125, 0.0625, -0.01
320, 0.875, 0.0625, -0.01
321, 0.9375, 0.0625, -0.01
322, 1, 0.0625, -0.01
323, 1.0625, 0.0625, -0.01
324, 1.125, 0.0625, -0.01
325, 1.1875, 0.0625, -0.01
326, 1.25, 0.0625, -0.01
327, 1.3125, 0.0625, -0.01
328, 1.375, 0.0625, -0.01
329, 1.4375, 0.0625, -0.01
330, 1.5, 0.0625, -0.01
331, -0.5, 0.125, -0.01
332, -0.4375, 0.125, -0.01
333, -0.375, 0.125, -0.01
334, -0.3125, 0.125, -0.01
335, -0.25, 0.125, -0.01
336, -0.1875, 0.125, -0.01
337, -0.125, 0.125, -0.01
338, -0.0625, 0.125, -0.01
339, 0, 0.125, -0.01
340, 0.0625, 0.125, -0.01
341, 0.125, 0.125, -0.01
342, 0.1875, 0.125, -0.01
343, 0.25, 0.125, -0.01
344, 0.3125, 0.125, -0.01
345, 0.375, 0.125, -0.01
346, 0.4375, 0.125, -0.01
347, 0.5, 0.125, -0.01
348, 0.5625, 0.125, -0.01
349, 0.625, 0.125, -0.01
350, 0.6875, 0.125, -0.01
351, 0.75, 0.125, -0.01
352, 0.8125, 0.125, -0.01
353, 0.875, 0.125, -0.01
354, 0.9375, 0.125, -0.01
355, 1, 0.125, -0.01
356, 1.0625, 0.125, -0.01
357, 1.125, 0.125, -0.01
358, 1.1875, 0.125, -0.01
359, 1.25, 0.125, -0.01
360, 1.3125, 0.125, -0.01
361, 1.375, 0.125, -0.01
362, 1.4375, 0.125, -0.01
363, 1.5, 0.125, -0.01
364, -0.5, 0.1875, -0.01
365, -0.4375, 0.1875, -0.01
366, -0.375, 0.1875, -0.01
367, -0.3125, 0.1875, -0.01
368, -0.25, 0.1875, -0.01
369, -0.1875, 0.1875, -0.01
370, -0.125, 0.1875, -0.01
371, -0.0625, 0.1875, -0.01
372, 0, 0.1875, -0.01
373, 0.0625, 0.1875, -0.01
374, 0.125, 0.1875, -0.01
375, 0.1875, 0.1875, -0.01
376, 0.25, 0.1875, -0.01
377, 0.3125, 0.1875, -0.01
378, 0.375, 0.1875, -0.01
379, 0.4375, 0.1875, -0.01
380, 0.5, 0.1875, -0.01
381, 0.5625, 0.1875, -0.01
382, 0.625, 0.1875, -0.01
383, 0.6875, 0.1875, -0.01
384, 0.75, 0.1875, -0.01
385, 0.8125, 0.1875, -0.01
386, 0.875, 0.1875, -0.01
387, 0.9375, 0.1875, -0.01
388, 1, 0.1875, -0.01
389, 1.0625, 0.1875, -0.01
390, 1.125, 0.1875, -0.01
391, 1.1875, 0.1875, -0.01
392, 1.25, 0.1875, -0.01
393, 1.3125, 0.1875, -0.01
394, 1.375, 0.1875, -0.01
395, 1.4375, 0.1875, -0.01
396, 1.5, 0.1875, -0.01
397, -0.5, 0.25, -0.01
398, -0.4375, 0.25, -0.01
399, -0.375, 0.25, -0.01
400, -0.3125, 0.25, -0.01
401, -0.25, 0.25, -0.01
402, -0.1875, 0.25, -0.01
403, -0.125, 0.25, -0.01
404, -0.0625, 0.25, -0.01
405, 0, 0.25, -0.01
406, 0.0625, 0.25, -0.01
407, 0.125, 0.25, -0.01
408, 0.1875, 0.25, -0.01
409, 0.25, 0.25, -0.01
410, 0.3125, 0.25, -0.01
411, 0.375, 0.25, -0.01
412, 0.4375, 0.25, -0.01
413, 0.5, 0.25, -0.01
414, 0.5625, 0.25, -0.01
415, 0.625, 0.25, -0.01
416, 0.6875, 0.25, -0.01
417, 0.75, 0.25, -0.01
418, 0.8125, 0.25, -0.01
419, 0.875, 0.25, -0.01
420, 0.9375, 0.25, -0.01
421, 1, 0.25, -0.01
422, 1.0625, 0.25, -0.01
423, 1.125, 0.25, -0.01
424, 1.1875, 0.25, -0.01
425, 1.25, 0.25, -0.01
426, 1.3125, 0.25, -0.01
427, 1.375, 0.25, -0.01
428, 1.4375, 0.25, -0.01
429, 1.5, 0.25, -0.01
430, -0.5, 0.3125, -0.01
431, -0.4375, 0.3125, -0.01
432, -0.375, 0.3125, -0.01
433, -0.3125, 0.3125, -0.01
434, -0.25, 0.3125, -0.01
435, -0.1875, 0.3125, -0.01
436, -0.125, 0.3125, -0.01
437, -0.0625, 0.3125, -0.01
438, 0, 0.3125, -0.01
439, 0.0625, 0.3125, -0.01
440, 0.125, 0.3125, -0.01
441, 0.1875, 0.3125, -0.01
442, 0.25, 0.3125, -0.01
443, 0.3125, 0.3125, -0.01
444, 0.375, 0.3125, -0.01
445, 0.4375, 0.3125, -0.01
446, 0.5, 0.3125, -0.01
447, 0.5625, 0.3125, -0.01
448, 0.625, 0.3125, -0.01
449, 0.6875, 0.3125, -0.01
450, 0.75, 0.3125, -0.01
451, 0.8125, 0.3125, -0.01
452, 0.875, 0.3125, -0.01
453, 0.9375, 0.3125, -0.01
454, 1, 0.3125, -0.01
455, 1.0625, 0.3125, -0.01
456, 1.125, 0.3125, -0.01
457, 1.1875, 0.3125, -0.01
458, 1.25, 0.3125, -0.01
459, 1.3125, 0.3125, -0.01
460, 1.375, 0.3125, -0.01
461, 1.4375, 0.3125, -0.01
462, 1.5, 0.3125, -0.01
463, -0.5, 0.375, -0.01
464, -0.4375, 0.375, -0.01
465, -0.375, 0.375, -0.01
466, -0.3125, 0.375, -0.01
467, -0.25, 0.375, -0.01
468, -0.1875, 0.375, -0.01
469, -0.125, 0.375, -0.01
470, -0.0625, 0.375, -0.01
471, 0, 0.375, -0.01
472, 0.0625, 0.375, -0.01
473, 0.125, 0.375, -0.01
474, 0.1875, 0.375, -0.01
475, 0.25, 0.375, -0.01
476, 0.3125, 0.375, -0.01
477, 0.375, 0.375, -0.01
478, 0.4375, 0.375, -0.01
479, 0.5, 0.375, -0.01
480, 0.5625, 0.375, -0.01
481, 0.625, 0.375, -0.01
482, 0.6875, 0.375, -0.01
483, 0.75, 0.375, -0.01
484, 0.8125, 0.375, -0.01
485, 0.875, 0.375, -0.01
486, 0.9375, 0.375, -0.01
487, 1, 0.375, -0.01
488, 1.0625, 0.375, -0.01
489, 1.125, 0.375, -0.01
490, 1.1875, 0.375, -0.01
491, 1.25, 0.375, -0.01
492, 1.3125, 0.375, -0.01
493, 1.375, 0.375, -0.01
494, 1.4375, 0.375, -0.01
495, 1.5, 0.375, -0.01
496, -0.5, 0.4375, -0.01
497, -0.4375, 0.4375, -0.01
498, -0.375, 0.4375, -0.01
499, -0.3125, 0.4375, -0.01
500, -0.25, 0.4375, -0.01
501, -0.1875, 0.4375, -0.01
502, -0.125, 0.4375, -0.01
503, -0.0625, 0.4375, -0.01
504, 0, 0.4375, -0.01
505, 0.0625, 0.4375, -0.01
506, 0.125, 0.4375, -0.01
507, 0.1875, 0.4375, -0.01
508, 0.25, 0.4375, -0.01
509, 0.3125, 0.4375, -0.01
510, 0.375, 0.4375, -0.01
511, 0.4375, 0.4375, -0.01
512, 0.5, 0.4375, -0.01
513, 0.5625, 0.4375, -0.01
514, 0.625, 0.4375, -0.01
515, 0.6875, 0.4375, -0.01
516, 0.75, 0.4375, -0.01
517, 0.8125, 0.4375, -0.01
518, 0.875, 0.4375, -0.01
519, 0.9375, 0.4375, -0.01
520, 1, 0.4375, -0.01
521, 1.0625, 0.4375, -0.01
522, 1.125, 0.4375, -0.01
523, 1.1875, 0.4375, -0.01
524, 1.25, 0.4375, -0.01
525, 1.3125, 0.4375, -0.01
526, 1.375, 0.4375, -0.01
527, 1.4375, 0.4375, -0.01
528, 1.5, 0.4375, -0.01
529, -0.5, 0.5, -0.01
530, -0.4375, 0.5, -0.01
531, -0.375, 0.5, -0.01
532, -0.3125, 0.5, -0.01
533, -0.25, 0.5, -0.01
534, -0.1875, 0.5, -0.01
535, -0.125, 0.5, -0.01
536, -0.0625, 0.5, -0.01
537, 0, 0.5, -0.01
538, 0.0625, 0.5, -0.01
539, 0.125, 0.5, -0.01
540, 0.1875, 0.5, -0.01
541, 0.25, 0.5, -0.01
542, 0.3125, 0.5, -0.01
543, 0.375, 0.5, -0.01
544, 0.4375, 0.5, -0.01
545, 0.5, 0.5, -0.01
546, 0.5625, 0.5, -0.01
547, 0.625, 0.5, -0.01
548, 0.6875, 0.5, -0.01
549, 0.75, 0.5, -0.01
550, 0.8125, 0.5, -0.01
551, 0.875, 0.5, -0.01
552, 0.9375, 0.5, -0.01
553, 1, 0.5, -0.01
554, 1.0625, 0.5, -0.01
555, 1.125, 0.5, -0.01
556, 1.1875, 0.5, -0.01
557, 1.25, 0.5, -0.01
558, 1.3125, 0.5, -0.01
559, 1.375, 0.5, -0.01
560, 1.4375, 0.5, -0.01
561, 1.5, 0.5, -0.01
562, -0.5, 0.5625, -0.01
563, -0.4375, 0.5625, -0.01
564, -0.375, 0.5625, -0.01
565, -0.3125, 0.5625, -0.01
566, -0.25, 0.5625, -0.01
567, -0.1875, 0.5625, -0.01
568, -0.125, 0.5625, -0.01
569, -0.0625, 0.5625, -0.01
570, 0, 0.5625, -0.01
571, 0.0625, 0.5625, -0.01
572, 0.125, 0.5625, -0.01
573, 0.1875, 0.5625, -0.01
574, 0.25, 0.5625, -0.01
575, 0.3125, 0.5625, -0.01
576, 0.375, 0.5625, -0.01
577, 0.4375, 0.5625, -0.01
578, 0.5, 0.5625, -0.01
579, 0.5625, 0.5625, -0.01
580, 0.625, 0.5625, -0.01
581, 0.6875, 0.5625, -0.01
582, 0.75, 0.5625, -0.01
583, 0.8125, 0.5625, -0.01
584, 0.875, 0.5625, -0.01
585, 0.9375, 0.5625, -0.01
586, 1, 0.5625, -0.01
587, 1.0625, 0.5625, -0.01
588, 1.125, 0.5625, -0.01
589, 1.1875, 0.5625, -0.01
590, 1.25, 0.5625, -0.01
591, 1.3125, 0.5625, -0.01
592, 1.375, 0.5625, -0.01
593, 1.4375, 0.5625, -0.01
594, 1.5, 0.5625, -0.01
595, -0.5, 0.625, -0.01
596, -0.4375, 0.625, -0.01
597, -0.375, 0.625, -0.01
598, -0.3125, 0.625, -0.01
599, -0.25, 0.625, -0.01
600, -0.1875, 0.625, -0.01
601, -0.125, 0.625, -0.01
602, -0.0625, 0.625, -0.01
603, 0, 0.625, -0.01
604, 0.0625, 0.625, -0.01
605, 0.125, 0.625, -0.01
606, 0.1875, 0.625, -0.01
607, 0.25, 0.625, -0.01
608, 0.3125, 0.625, -0.01
609, 0.375, 0.625, -0.01
610, 0.4375, 0.625, -0.01
611, 0.5, 0.625, -0.01
612, 0.5625, 0.625, -0.01
613, 0.625, 0.625, -0.01
614, 0.6875, 0.625, -0.01
615, 0.75, 0.625, -0.01
616, 0.8125, 0.625, -0.01
617, 0.875, 0.625, -0.01
618, 0.9375, 0.625, -0.01
619, 1, 0.625, -0.01
620, 1.0625, 0.625, -0.01
621, 1.125, 0.625, -0.01
622, 1.1875, 0.625, -0.01
623, 1.25, 0.625, -0.01
624, 1.3125, 0.625, -0.01
625, 1.375, 0.625, -0.01
626, 1.4375, 0.625, -0.01
627, 1.5, 0.625, -0.01
628, -0.5, 0.6875, -0.01
629, -0.4375, 0.6875, -0.01
630, -0.375, 0.6875, -0.01
631, -0.3125, 0.6875, -0.01
632, -0.25, 0.6875, -0.01
633, -0.1875, 0.6875, -0.01
634, -0.125, 0.6875, -0.01
635, -0.0625, 0.6875, -0.01
636, 0, 0.6875, -0.01
637, 0.0625, 0.6875, -0.01
638, 0.125, 0.6875, -0.01
639, 0.1875, 0.6875, -0.01
640, 0.25, 0.6875, -0.01
641, 0.3125, 0.6875, -0.01
642, 0.375, 0.6875, -0.01
643, 0.4375, 0.6875, -0.01
644, 0.5, 0.6875, -0.01
645, 0.5625, 0.6875, -0.01
646, 0.625, 0.6875, -0.01
647, 0.6875, 0.6875, -0.01
648, 0.75, 0.6875, -0.01
649, 0.8125, 0.6875, -0.01
650, 0.875, 0.6875, -0.01
651, 0.9375, 0.6875, -0.01
652, 1, 0.6875, -0.01
653, 1.0625, 0.6875, -0.01
654, 1.125, 0.6875, -0.01
655, 1.1875, 0.6875, -0.01
656, 1.25, 0.6875, -0.01
657, 1.3125, 0.6875, -0.01
658, 1.375, 0.6875, -0.01
659, 1.4375, 0.6875, -0.01
660, 1.5, 0.6875, -0.01
661, -0.5, 0.75, -0.01
662, -0.4375, 0.75, -0.01
663, -0.375, 0.75, -0.01
664, -0.3125, 0.75, -0.01
665, -0.25, 0.75, -0.01
666, -0.1875, 0.75, -0.01
667, -0.125, 0.75, -0.01
668, -0.0625, 0.75, -0.01
669, 0, 0.75, -0.01
670, 0.0625, 0.75, -0.01
671, 0.125, 0.75, -0.01
672, 0.1875, 0.75, -0.01
673, 0.25, 0.75, -0.01
674, 0.3125, 0.75, -0.01
675, 0.375, 0.75, -0.01
676, 0.4375, 0.75, -0.01
677, 0.5, 0.75, -0.01
678, 0.5625, 0.75, -0.01
679, 0.625, 0.75, -0.01
680, 0.6875, 0.75, -0.01
681, 0.75, 0.75, -0.01
682, 0.8125, 0.75, -0.01
683, 0.875, 0.75, -0.01
684, 0.9375, 0.75, -0.01
685, 1, 0.75, -0.01
686, 1.0625, 0.75, -0.01
687, 1.125, 0.75, -0.01
688, 1.1875, 0.75, -0.01
689, 1.25, 0.75, -0.01
690, 1.3125, 0.75, -0.01
691, 1.375, 0.75, -0.01
692, 1.4375, 0.75, -0.01
693, 1.5, 0.75, -0.01
694, -0.5, 0.8125, -0.01
695, -0.4375, 0.8125, -0.01
696, -0.375, 0.8125, -0.01
697, -0.3125, 0.8125, -0.01
698, -0.25, 0.8125, -0.01
699, -0.1875, 0.8125, -0.01
700, -0.125, 0.8125, -0.01
701, -0.0625, 0.8125, -0.01
702, 0, 0.8125, -0.01
703, 0.0625, 0.8125, -0.01
704, 0.125, 0.8125, -0.01
705, 0.1875, 0.8125, -0.01
706, 0.25, 0.8125, -0.01
707, 0.3125, 0.8125, -0.01
708, 0.375, 0.8125, -0.01
709, 0.4375, 0.8125, -0.01
710, 0.5, 0.8125, -0.01
711, 0.5625, 0.8125, -0.01
712, 0.625, 0.8125, -0.01
713, 0.6875, 0.8125, -0.01
714, 0.75, 0.8125, -0.01
715, 0.8125, 0.8125, -0.01
716, 0.875, 0.8125, -0.01
717, 0.9375, 0.8125, -0.01
718, 1, 0.8125, -0.01
719, 1.0625, 0.8125, -0.01
720, 1.125, 0.8125, -0.01
721, 1.1875, 0.8125, -0.01
722, 1.25, 0.8125, -0.01
723, 1.3125, 0.8125, -0.01
724, 1.375, 0.8125, -0.01
725, 1.4375, 0.8125, -0.01
726, 1.5, 0.8125, -0.01
727, -0.5, 0.875, -0.01
728, -0.4375, 0.875, -0.01
729, -0.375, 0.875, -0.01
730, -0.3125, 0.875, -0.01
731, -0.25, 0.875, -0.01
732, -0.1875, 0.875, -0.01
733, -0.125, 0.875, -0.01
734, -0.0625, 0.875, -0.01
735, 0, 0.875, -0.01
736, 0.0625, 0.875, -0.01
737, 0.125, 0.875, -0.01
738, 0.1875, 0.875, -0.01
739, 0.25, 0.875, -0.01
740, 0.3125, 0.875, -0.01
741, 0.375, 0.875, -0.01
742, 0.4375, 0.875, -0.01
743, 0.5, 0.875, -0.01
744, 0.5625, 0.875, -0.01
745, 0.625, 0.875, -0.01
746, 0.6875, 0.875, -0.01
747, 0.75, 0.875, -0.01
748, 0.8125, 0.875, -0.01
749, 0.875, 0.875, -0.01
750, 0.9375, 0.875, -0.01
751, 1, 0.875, -0.01
752, 1.0625, 0.875, -0.01
753, 1.125, 0.875, -0.01
754, 1.1875, 0.875, -0.01
755, 1.25, 0.875, -0.01
756, 1.3125, 0.875, -0.01
757, 1.375, 0.875, -0.01
758, 1.4375, 0.875, -0.01
759, 1.5, 0.875, -0.01
760, -0.5, 0.9375, -0.01
761, -0.4375, 0.9375, -0.01
762, -0.375, 0.9375, -0.01
763, -0.3125, 0.9375, -0.01
764, -0.25, 0.9375, -0.01
765, -0.1875, 0.9375, -0.01
766, -0.125, 0.9375, -0.01
767, -0.0625, 0.9375, -0.01
768, 0, 0.9375, -0.01
769, 0.0625, 0.9375, -0.01
770, 0.125, 0.9375, -0.01
771, 0.1875, 0.9375, -0.01
772, 0.25, 0.9375, -0.01
773, 0.3125, 0.9375, -0.01
774, 0.375, 0.9375, -0.01
775, 0.4375, 0.9375, -0.01
776, 0.5, 0.9375, -0.01
777, 0.5625, 0.9375, -0.01
778, 0.625, 0.9375, -0.01
779, 0.6875, 0.9375, -0.01
780, 0.75, 0.9375, -0.01
781, 0.8125, 0.9375, -0.01
782, 0.875, 0.9375, -0.01
783, 0.9375, 0.9375, -0.01
784, 1, 0.9375, -0.01
785, 1.0625, 0.9375, -0.01
786, 1.125, 0.9375, -0.01
787, 1.1875, 0.9375, -0.01
788, 1.25, 0.9375, -0.01
789, 1.3125, 0.9375, -0.01
790, 1.375, 0.9375, -0.01
791, 1.4375, 0.9375, -0.01
792, 1.5, 0.9375, -0.01
793, -0.5, 1, -0.01
794, -0.4375, 1, -0.01
795, -0.375, 1, -0.01
796, -0.3125, 1, -0.01
797, -0.25, 1, -0.01
798, -0.1875, 1, -0.01
799, -0.125, 1, -0.01
800, -0.0625, 1, -0.01
801, 0, 1, -0.01
802, 0.0625, 1, -0.01
803, 0.125, 1, -0.01
804, 0.1875, 1, -0.01
805, 0.25, 1, -0.01
806, 0.3125, 1, -0.01
807, 0.375, 1, -0.01
808, 0.4375, 1, -0.01
809, 0.5, 1, -0.01
810, 0.5625, 1, -0.01
811, 0.625, 1, -0.01
812, 0.6875, 1, -0.01
813, 0.75, 1, -0.01
814, 0.8125, 1, -0.01
815, 0.875, 1, -0.01
816, 0.9375, 1, -0.01
817, 1, 1, -0.01
818, 1.0625, 1, -0.01
819, 1.125, 1, -0.01
820, 1.1875, 1, -0.01
821, 1.25, 1, -0.01
822, 1.3125, 1, -0.01
823, 1.375, 1, -0.01
824, 1.4375, 1, -0.01
825, 1.5, 1, -0.01
826, -0.5, 1.0625, -0.01
827, -0.4375, 1.0625, -0.01
828, -0.375, 1.0625, -0.01
829, -0.3125, 1.0625, -0.01
830, -0.25, 1.0625, -0.01
831, -0.1875, 1.0625, -0.01
832, -0.125, 1.0625, -0.01
833, -0.0625, 1.0625, -0.01
834, 0, 1.0625, -0.01
835, 0.0625, 1.0625, -0.01
836, 0.125, 1.0625, -0.01
837, 0.1875, 1.0625, -0.01
838, 0.25, 1.0625, -0.01
839, 0.3125, 1.0625, -0.01
840, 0.375, 1.0625, -0.01
841, 0.4375, 1.0625, -0.01
842, 0.5, 1.0625, -0.01
843, 0.5625, 1.0625, -0.01
844, 0.625, 1.0625, -0.01
845, 0.6875, 1.0625, -0.01
846, 0.75, 1.0625, -0.01
847, 0.8125, 1.0625, -0.01
848, 0.875, 1.0625, -0.01
849, 0.9375, 1.0625, -0.01
850, 1, 1.0625, -0.01
851, 1.0625, 1.0625, -0.01
852, 1.125, 1.0625, -0.01
853, 1.1875, 1.0625, -0.01
854, 1.25, 1.0625, -0.01
855, 1.3125, 1.0625, -0.01
856, 1.375, 1.0625, -0.01
857, 1.4375, 1.0625, -0.01
858, 1.5, 1.0625, -0.01
859, -0.5, 1.125, -0.01
860, -0.4375, 1.125, -0.01
861, -0.375, 1.125, -0.01
862, -0.3125, 1.125, -0.01
863, -0.25, 1.125, -0.01
864, -0.1875, 1.125, -0.01
865, -0.125, 1.125, -0.01
866, -0.0625, 1.125, -0.01
867, 0, 1.125, -0.01
868, 0.0625, 1.125, -0.01
869, 0.125, 1.125, -0.01
870, 0.1875, 1.125, -0.01
871, 0.25, 1.125, -0.01
872, 0.3125, 1.125, -0.01
873, 0.375, 1.125, -0.01
874, 0.4375, 1.125, -0.01
875, 0.5, 1.125, -0.01
876, 0.5625, 1.125, -0.01
877, 0.625, 1.125, -0.01
878, 0.6875, 1.125, -0.01
879, 0.75, 1.125, -0.01
880, 0.8125, 1.125, -0.01
881, 0.875, 1.125, -0.01
882, 0.9375, 1.125, -0.01
883, 1, 1.125, -0.01
884, 1.0625, 1.125, -0.01
885, 1.125, 1.125, -0.01
886, 1.1875, 1.125, -0.01
887, 1.25, 1.125, -0.01
888, 1.3125, 1.125, -0.01
889, 1.375, 1.125, -0.01
890, 1.4375, 1.125, -0.01
891, 1.5, 1.125, -0.01
892, -0.5, 1.1875, -0.01
893, -0.4375, 1.1875, -0.01
894, -0.375, 1.1875, -0.01
895, -0.3125, 1.1875, -0.01
896, -0.25, 1.1875, -0.01
897, -0.1875, 1.1875, -0.01
898, -0.125, 1.1875, -0.01
899, -0.0625, 1.1875, -0.01
900, 0, 1.1875, -0.01
901, 0.0625, 1.1875, -0.01
902, 0.125, 1.1875, -0.01
903, 0.1875, 1.1875, -0.01
904, 0.25, 1.1875, -0.01
905, 0.3125, 1.1875, -0.01
906, 0.375, 1.1875, -0.01
907, 0.4375, 1.1875, -0.01
908, 0.5, 1.1875, -0.01
909, 0.5625, 1.1875, -0.01
910, 0.625, 1.1875, -0.01
911, 0.6875, 1.1875, -0.01
912, 0.75, 1.1875, -0.01
913, 0.8125, 1.1875, -0.01
914, 0.875, 1.1875, -0.01
915, 0.9375, 1.1875, -0.01
916, 1, 1.1875, -0.01
917, 1.0625, 1.1875, -0.01
918, 1.125, 1.1875, -0.01
919, 1.1875, 1.1875, -0.01
920, 1.25, 1.1875, -0.01
921, 1.3125, 1.1875, -0.01
922, 1.375, 1.1875, -0.01
923, 1.4375, 1.1875, -0.01
924, 1.5, 1.1875, -0.01
925, -0.5, 1.25, -0.01
926, -0.4375, 1.25, -0.01
927, -0.375, 1.25, -0.01
928, -0.3125, 1.25, -0.01
929, -0.25, 1.25, -0.01
930, -0.1875, 1.25, -0.01
931, -0.125, 1.25, -0.01
932, -0.0625, 1.25, -0.01
933, 0, 1.25, -0.01
934, 0.0625, 1.25, -0.01
935, 0.125, 1.25, -0.01
936, 0.1875, 1.25, -0.01
937, 0.25, 1.25, -0.01
938, 0.3125, 1.25, -0.01
939, 0.375, 1.25, -0.01
940, 0.4375, 1.25, -0.01
941, 0.5, 1.25, -0.01
942, 0.5625, 1.25, -0.01
943, 0.625, 1.25, -0.01
944, 0.6875, 1.25, -0.01
945, 0.75, 1.25, -0.01
946, 0.8125, 1.25, -0.01
947, 0.875, 1.25, -0.01
948, 0.9375, 1.25, -0.01
949, 1, 1.25, -0.01
950, 1.0625, 1.25, -0.01
951, 1.125, 1.25, -0.01
952, 1.1875, 1.25, -0.01
953, 1.25, 1.25, -0.01
954, 1.3125, 1.25, -0.01
955, 1.375, 1.25, -0.01
956, 1.4375, 1.25, -0.01
957, 1.5, 1.25, -0.01
958, -0.5, 1.3125, -0.01
959, -0.4375, 1.3125, -0.01
960, -0.375, 1.3125, -0.01
961, -0.3125, 1.3125, -0.01
962, -0.25, 1.3125, -0.01
963, -0.1875, 1.3125, -0.01
964, -0.125, 1.3125, -0.01
965, -0.0625, 1.3125, -0.01
966, 0, 1.3125, -0.01
967, 0.0625, 1.3125, -0.01
968, 0.125, 1.3125, -0.01
969, 0.1875, 1.3125, -0.01
970, 0.25, 1.3125, -0.01
971, 0.3125, 1.3125, -0.01
972, 0.375, 1.3125, -0.01
973, 0.4375, 1.3125, -0.01
974, 0.5, 1.3125, -0.01
975, 0.5625, 1.3125, -0.01
976, 0.625, 1.3125, -0.01
977, 0.6875, 1.3125, -0.01
978, 0.75, 1.3125, -0.01
979, 0.8125, 1.3125, -0.01
980, 0.875, 1.3125, -0.01
981, 0.9375, 1.3125, -0.01
982, 1, 1.3125, -0.01
983, 1.0625, 1.3125, -0.01
984, 1.125, 1.3125, -0.01
985, 1.1875, 1.3125, -0.01
986, 1.25, 1.3125, -0.01
987, 1.3125, 1.3125, -0.01
988, 1.375, 1.3125, -0.01
989, 1.4375, 1.3125, -0.01
990, 1.5, 1.3125, -0.01
991, -0.5, 1.375, -0.01
992, -0.4375, 1.375, -0.01
993, -0.375, 1.375, -0.01
994, -0.3125, 1.375, -0.01
995, -0.25, 1.375, -0.01
996, -0.1875, 1.375, -0.01
997, -0.125, 1.375, -0.01
998, -0.0625, 1.375, -0.01
999, 0, 1.375, -0.01
1000, 0.0625, 1.375, -0.01
1001, 0.125, 1.375, -0.01
1002, 0.1875, 1.375, -0.01
1003, 0.25, 1.375, -0.01
1004, 0.3125, 1.375, -0.01
1005, 0.375, 1.375, -0.01
1006, 0.4375, 1.375, -0.01
1007, 0.5, 1.375, -0.01
1008, 0.5625, 1.375, -0.01
1009, 0.625, 1.375, -0.01
1010, 0.6875, 1.375, -0.01
1011, 0.75, 1.375, -0.01
1012, 0.8125, 1.375, -0.01
1013, 0.875, 1.375, -0.01
1014, 0.9375, 1.375, -0.01
1015, 1, 1.375, -0.01
1016, 1.0625, 1.375, -0.01
1017, 1.125, 1.375, -0.01
1018, 1.1875, 1.375, -0.01
1019, 1.25, 1.375, -0.01
1020, 1.3125, 1.375, -0.01
1021, 1.375, 1.375, -0.01
1022, 1.4375, 1.375, -0.01
1023, 1.5, 1.375, -0.01
1024, -0.5, 1.4375, -0.01
1025, -0.4375, 1.4375, -0.01
1026, -0.375, 1.4375, -0.01
1027, -0.3125, 1.4375, -0.01
1028, -0.25, 1.4375, -0.01
1029, -0.1875, 1.4375, -0.01
1030, -0.125, 1.4375, -0.01
1031, -0.0625, 1.4375, -0.01
1032, 0, 1.4375, -0.01
1033, 0.0625, 1.4375, -0.01
1034, 0.125, 1.4375, -0.01
1035, 0.1875, 1.4375, -0.01
1036, 0.25, 1.4375, -0.01
1037, 0.3125, 1.4375, -0.01
1038, 0.375, 1.4375, -0.01
1039, 0.4375, 1.4375, -0.01
1040, 0.5, 1.4375, -0.01
1041, 0.5625, 1.4375, -0.01
1042, 0.625, 1.4375, -0.01
1043, 0.6875, 1.4375, -0.01
1044, 0.75, 1.4375, -0.01
1045, 0.8125, 1.4375, -0.01
1046, 0.875, 1.4375, -0.01
1047, 0.9375, 1.4375, -0.01
1048, 1, 1.4375, -0.01
1049, 1.0625, 1.4375, -0.01
1050, 1.125, 1.4375, -0.01
1051, 1.1875, 1.4375, -0.01
1052, 1.25, 1.4375, -0.01
1053, 1.3125, 1.4375, -0.01
1054, 1.375, 1.4375, -0.01
1055, 1.4375, 1.4375, -0.01
1056, 1.5, 1.4375, -0.01
1057, -0.5, 1.5, -0.01
1058, -0.4375, 1.5, -0.01
1059, -0.375, 1.5, -0.01
1060, -0.3125, 1.5, -0.01
1061, -0.25, 1.5, -0.01
1062, -0.1875, 1.5, -0.01
1063, -0.125, 1.5, -0.01
1064, -0.0625, 1.5, -0.01
1065, 0, 1.5, -0.01
1066, 0.0625, 1.5, -0.01
1067, 0.125, 1.5, -0.01
1068, 0.1875, 1.5, -0.01
1069, 0.25, 1.5, -0.01
1070, 0.3125, 1.5, -0.01
1071, 0.375, 1.5, -0.01
1072, 0.4375, 1.5, -0.01
1073, 0.5, 1.5, -0.01
1074, 0.5625, 1.5, -0.01
1075, 0.625, 1.5, -0.01
1076, 0.6875, 1.5, -0.01
1077, 0.75, 1.5, -0.01
1078, 0.8125, 1.5, -0.01
1079, 0.875, 1.5, -0.01
1080, 0.9375, 1.5, -0.01
1081, 1, 1.5, -0.01
1082, 1.0625, 1.5, -0.01
1083, 1.125, 1.5, -0.01
1084, 1.1875, 1.5, -0.01
1085, 1.25, 1.5, -0.01
1086, 1.3125, 1.5, -0.01
1087, 1.375, 1.5, -0.01
1088, 1.4375, 1.5, -0.01
1089, 1.5, 1.5, -0.01
1090, -0.5, -0.5, 0.0175
1091, -0.4375, -0.5, 0.0175
1092, -0.375, -0.5, 0.0175
1093, -0.3125, -0.5, 0.0175
1094, -0.25, -0.5, 0.0175
1095, -0.1875, -0.5, 0.0175
1096, -0.125, -0.5, 0.0175
1097, -0.0625, -0.5, 0.0175
1098, 0, -0.5, 0.0175
1099, 0.0625, -0.5, 0.0175
1100, 0.125, -0.5, 0.0175
1101, 0.1875, -0.5, 0.0175
1102, 0.25, -0.5, 0.0175
1103, 0.3125, -0.5, 0.0175
1104, 0.375, -0.5, 0.0175
1105, 0.4375, -0.5, 0.0175
1106, 0.5, -0.5, 0.0175
1107, 0.5625, -0.5, 0.0175
1108, 0.625, -0.5, 0.0175
1109, 0.6875, -0.5, 0.0175
1110, 0.75, -0.5, 0.0175
1111, 0.8125, -0.5, 0.0175
1112, 0.875, -0.5, 0.0175
1113, 0.9375, -0.5, 0.0175
1114, 1, -0.5, 0.0175
1115, 1.0625, -0.5, 0.0175
1116, 1.125, -0.5, 0.0175
1117, 1.1875, -0.5, 0.0175
1118, 1.25, -0.5, 0.0175
1119, 1.3125, -0.5, 0.0175
1120, 1.375, -0.5, 0.0175
1121, 1.4375, -0.5, 0.0175
1122, 1.5, -0.5, 0.0175
1123, -0.5, -0.4375, 0.0175
1124, -0.4375, -0.4375, 0.0175
1125, -0.375, -0.4375, 0.0175
1126, -0.3125, -0.4375, 0.0175
1127, -0.25, -0.4375, 0.0175
1128, -0.1875, -0.4375, 0.0175
1129, -0.125, -0.4375, 0.0175
1130, -0.0625, -0.4375, 0.0175
1131, 0, -0.4375, 0.0175
1132, 0.0625, -0.4375, 0.0175
1133, 0.125, -0.4375, 0.0175
1134, 0.1875, -0.4375, 0.0175
1135, 0.25, -0.4375, 0.0175
1136, 0.3125, -0.4375, 0.0175
1137, 0.375, -0.4375, 0.0175
1138, 0.4375, -0.4375, 0.0175
1139, 0.5, -0.4375, 0.0175
1140, 0.5625, -0.4375, 0.0175
1141, 0.625, -0.4375, 0.0175
1142, 0.6875, -0.4375, 0.0175
1143, 0.75, -0.4375, 0.0175
1144, 0.8125, -0.4375, 0.0175
1145, 0.875, -0.4375, 0.0175
1146, 0.9375, -0.4375, 0.0175
1147, 1, -0.4375, 0.0175
1148, 1.0625, -0.4375, 0.0175
1149, 1.125, -0.4375, 0.0175
1150, 1.1875, -0.4375, 0.0175
1151, 1.25, -0.4375, 0.0175
1152, 1.3125, -0.4375, 0.0175
1153, 1.375, -0.4375, 0.0175
1154, 1.4375, -0.4375, 0.0175
1155, 1.5, -0.4375, 0.0175
1156, -0.5, -0.375, 0.0175
1157, -0.4375, -0.375, 0.0175
1158, -0.375, -0.375, 0.0175
1159, -0.3125, -0.375, 0.0175
1160, -0.25, -0.375, 0.0175
1161, -0.1875, -0.375, 0.0175
1162, -0.125, -0.375, 0.0175
1163, -0.0625, -0.375, 0.0175
1164, 0, -0.375, 0.0175
1165, 0.0625, -0.375, 0.0175
1166, 0.125, -0.375, 0.0175
1167, 0.1875, -0.375, 0.0175
1168, 0.25, -0.375, 0.0175
1169, 0.3125, -0.375, 0.0175
1170, 0.375, -0.375, 0.0175
1171, 0.4375, -0.375, 0.0175
1172, 0.5, -0.375, 0.0175
1173, 0.5625, -0.375, 0.0175
1174, 0.625, -0.375, 0.0175
1175, 0.6875, -0.375, 0.0175
1176, 0.75, -0.375, 0.0175
1177, 0.8125, -0.375, 0.0175
1178, 0.875, -0.375, 0.0175
1179, 0.9375, -0.375, 0.0175
1180, 1, -0.375, 0.0175
1181, 1.0625, -0.375, 0.0175
1182, 1.125, -0.375, 0.0175
1183, 1.1875, -0.375, 0.0175
1184, 1.25, -0.375, 0.0175
1185, 1.3125, -0.375, 0.0175
1186, 1.375, -0.375, 0.0175
1187, 1.4375, -0.375, 0.0175
1188, 1.5, -0.375, 0.0175
1189, -0.5, -0.3125, 0.0175
1190, -0.4375, -0.3125, 0.0175
1191, -0.375, -0.3125, 0.0175
1192, -0.3125, -0.3125, 0.0175
1193, -0.25, -0.3125, 0.0175
1194, -0.1875, -0.3125, 0.0175
1195, -0.125, -0.3125, 0.0175
1196, -0.0625, -0.3125, 0.0175
1197, 0, -0.3125, 0.0175
1198, 0.0625, -0.3125, 0.0175
1199, 0.125, -0.3125, 0.0175
1200, 0.1875, -0.3125, 0.0175
1201, 0.25, -0.3125, 0.0175
1202, 0.3125, -0.3125, 0.0175
1203, 0.375, -0.3125, 0.0175
1204, 0.4375, -0.3125, 0.0175
1205, 0.5, -0.3125, 0.0175
1206, 0.5625, -0.3125, 0.0175
1207, 0.625, -0.3125, 0.0175
1208, 0.6875, -0.3125, 0.0175
1209, 0.75, -0.3125, 0.0175
1210, 0.8125, -0.3125, 0.0175
1211, 0.875, -0.3125, 0.0175
1212, 0.9375, -0.3125, 0.0175
1213, 1, -0.3125, 0.0175
1214, 1.0625, -0.3125, 0.0175
1215, 1.125, -0.3125, 0.0175
1216, 1.1875, -0.3125, 0.0175
1217, 1.25, -0.3125, 0.0175
1218, 1.3125, -0.3125, 0.0175
1219, 1.375, -0.3125, 0.0175
1220, 1.4375, -0.3125, 0.0175
1221, 1.5, -0.3125, 0.0175
1222, -0.5, -0.25, 0.0175
1223, -0.4375, -0.25, 0.0175
1224, -0.375, -0.25, 0.0175
1225, -0.3125, -0.25, 0.0175
1226, -0.25, -0.25, 0.0175
1227, -0.1875, -0.25, 0.0175
1228, -0.125, -0.25, 0.0175
1229, -0.0625, -0.25, 0.0175
1230, 0, -0.25, 0.0175
1231, 0.0625, -0.25, 0.0175
1232, 0.125, -0.25, 0.0175
1233, 0.1875, -0.25, 0.0175
1234, 0.25, -0.25, 0.0175
1235, 0.3125, -0.25, 0.0175
1236, 0.375, -0.25, 0.0175
1237, 0.4375, -0.25, 0.0175
1238, 0.5, -0.25, 0.0175
1239, 0.5625, -0.25, 0.0175
1240, 0.625, -0.25, 0.0175
1241, 0.6875, -0.25, 0.0175
1242, 0.75, -0.25, 0.0175
1243, 0.8125, -0.25, 0.0175
1244, 0.875, -0.25, 0.0175
1245, 0.9375, -0.25, 0.0175
1246, 1, -0.25, 0.0175
1247, 1.0625, -0.25, 0.0175
1248, 1.125, -0.25, 0.0175
1249, 1.1875, -0.25, 0.0175
1250, 1.25, -0.25, 0.0175
1251, 1.3125, -0.25, 0.0175
1252, 1.375, -0.25, 0.0175
1253, 1.4375, -0.25, 0.0175
1254, 1.5, -0.25, 0.0175
1255, -0.5, -0.1875, 0.0175
1256, -0.4375, -0.1875, 0.0175
1257, -0.375, -0.1875, 0.0175
1258, -0.3125, -0.1875, 0.0175
1259, -0.25, -0.1875, 0.0175
1260, -0.1875, -0.1875, 0.0175
1261, -0.125, -0.1875, 0.0175
1262, -0.0625, -0.1875, 0.0175
1263, 0, -0.1875, 0.0175
1264, 0.0625, -0.1875, 0.0175
1265, 0.125, -0.1875, 0.0175
1266, 0.1875, -0.1875, 0.0175
1267, 0.25, -0.1875, 0.0175
1268, 0.3125, -0.1875, 0.0175
1269, 0.375, -0.1875, 0.0175
1270, 0.4375, -0.1875, 0.0175
1271, 0.5, -0.1875, 0.0175
1272, 0.5625, -0.1875, 0.0175
1273, 0.625, -0.1875, 0.0175
1274, 0.6875, -0.1875, 0.0175
1275, 0.75, -0.1875, 0.0175
1276, 0.8125, -0.1875, 0.0175
1277, 0.875, -0.1875, 0.0175
1278, 0.9375, -0.1875, 0.0175
1279, 1, -0.1875, 0.0175
1280, 1.0625, -0.1875, 0.0175
1281, 1.125, -0.1875, 0.0175
1282, 1.1875, -0.1875, 0.0175
1283, 1.25, -0.1875, 0.0175
1284, 1.3125, -0.1875, 0.0175
1285, 1.375, -0.1875, 0.0175
1286, 1.4375, -0.1875, 0.0175
1287, 1.5, -0.1875, 0.0175
1288, -0.5, -0.125, 0.0175
1289, -0.4375, -0.125, 0.0175
1290, -0.375, -0.125, 0.0175
1291, -0.3125, -0.125, 0.0175
1292, -0.25, -0.125, 0.0175
1293, -0.1875, -0.125, 0.0175
1294, -0.125, -0.125, 0.0175
1295, -0.0625, -0.125, 0.0175
1296, 0, -0.125, 0.0175
1297, 0.0625, -0.125, 0.0175
1298, 0.125, -0.125, 0.0175
1299, 0.1875, -0.125, 0.0175
1300, 0.25, -0.125, 0.0175
1301, 0.3125, -0.125, 0.0175
1302, 0.375, -0.125, 0.0175
1303, 0.4375, -0.125, 0.0175
1304, 0.5, -0.125, 0.0175
1305, 0.5625, -0.125, 0.0175
1306, 0.625, -0.125, 0.0175
1307, 0.6875, -0.125, 0.0175
1308, 0.75, -0.125, 0.0175
1309, 0.8125, -0.125, 0.0175
1310, 0.875, -0.125, 0.0175
1311, 0.9375, -0.125, 0.0175
1312, 1, -0.125, 0.0175
1313, 1.0625, -0.125, 0.0175
1314, 1.125, -0.125, 0.0175
1315, 1.1875, -0.125, 0.0175
1316, 1.25, -0.125, 0.0175
1317, 1.3125, -0.125, 0.0175
1318, 1.375, -0.125, 0.0175
1319, 1.4375, -0.125, 0.0175
1320, 1.5, -0.125, 0.0175
1321, -0.5, -0.0625, 0.0175
1322, -0.4375, -0.0625, 0.0175
1323, -0.375, -0.0625, 0.0175
1324, -0.3125, -0.0625, 0.0175
1325, -0.25, -0.0625, 0.0175
1326, -0.1875, -0.0625, 0.0175
1327, -0.125, -0.0625, 0.0175
1328, -0.0625, -0.0625, 0.0175
1329, 0, -0.0625, 0.0175
1330, 0.0625, -0.0625, 0.0175
1331, 0.125, -0.0625, 0.0175
1332, 0.1875, -0.0625, 0.0175
1333, 0.25, -0.0625, 0.0175
1334, 0.3125, -0.0625, 0.0175
1335, 0.375, -0.0625, 0.0175
1336, 0.4375, -0.0625, 0.0175
1337, 0.5, -0.0625, 0.0175
1338, 0.5625, -0.0625, 0.0175
1339, 0.625, -0.0625, 0.0175
1340, 0.6875, -0.0625, 0.0175
1341, 0.75, -0.0625, 0.0175
1342, 0.8125, -0.0625, 0.0175
1343, 0.875, -0.0625, 0.0175
1344, 0.9375, -0.0625, 0.0175
1345, 1, -0.0625, 0.0175
1346, 1.0625, -0.0625, 0.0175
1347, 1.125, -0.0625, 0.0175
1348, 1.1875, -0.0625, 0.0175
1349, 1.25, -0.0625, 0.0175
1350, 1.3125, -0.0625, 0.0175
1351, 1.375, -0.0625, 0.0175
1352, 1.4375, -0.0625, 0.0175
1353, 1.5, -0.0625, 0.0175
1354, -0.5, 0, 0.0175
1355, -0.4375, 0, 0.0175
1356, -0.375, 0, 0.0175
1357, -0.3125, 0, 0.0175
1358, -0.25, 0, 0.0175
1359, -0.1875, 0, 0.0175
1360, -0.125, 0, 0.0175
1361, -0.0625, 0, 0.0175
1362, 0, 0, 0.0175
1363, 0.0625, 0, 0.0175
1364, 0.125, 0, 0.0175
1365, 0.1875, 0, 0.0175
1366, 0.25, 0, 0.0175
1367, 0.3125, 0, 0.0175
1368, 0.375, 0, 0.0175
1369, 0.4375, 0, 0.0175
1370, 0.5, 0, 0.0175
1371, 0.5625, 0, 0.0175
1372, 0.625, 0, 0.0175
1373, 0.6875, 0, 0.0175
1374, 0.75, 0, 0.0175
1375, 0.8125, 0, 0.0175
1376, 0.875, 0, 0.0175
1377, 0.9375, 0, 0.0175
1378, 1, 0, 0.0175
1379, 1.0625, 0, 0.0175
1380, 1.125, 0, 0.0175
1381, 1.1875, 0, 0.0175
1382, 1.25, 0, 0.0175
1383, 1.3125, 0, 0.0175
1384, 1.375, 0, 0.0175
1385, 1.4375, 0, 0.0175
1386, 1.5, 0, 0.0175
1387, -0.5, 0.0625, 0.0175
1388, -0.4375, 0.0625, 0.0175
1389, -0.375, 0.0625, 0.0175
1390, -0.3125, 0.0625, 0.0175
1391, -0.25, 0.0625, 0.0175
1392, -0.1875, 0.0625, 0.0175
1393, -0.125, 0.0625, 0.0175
1394, -0.0625, 0.0625, 0.0175
1395, 0, 0.0625, 0.0175
1396, 0.0625, 0.0625, 0.0175
1397, 0.125, 0.0625, 0.0175
1398, 0.1875, 0.0625, 0.0175
1399, 0.25, 0.0625, 0.0175
1400, 0.3125, 0.0625, 0.0175
1401, 0.375, 0.0625, 0.0175
1402, 0.4375, 0.0625, 0.0175
1403, 0.5, 0.0625, 0.0175
1404, 0.5625, 0.0625, 0.0175
1405, 0.625, 0.0625, 0.0175
1406, 0.6875, 0.0625, 0.0175
1407, 0.75, 0.0625, 0.0175
1408, 0.8125, 0.0625, 0.0175
1409, 0.875, 0.0625, 0.0175
1410, 0.9375, 0.0625, 0.0175
1411, 1, 0.0625, 0.0175
1412, 1.0625, 0.0625, 0.0175
1413, 1.125, 0.0625, 0.0175
1414, 1.1875, 0.0625, 0.0175
1415, 1.25, 0.0625, 0.0175
1416, 1.3125, 0.0625, 0.0175
1417, 1.375, 0.0625, 0.0175
1418, 1.4375, 0.0625, 0.0175
1419, 1.5, 0.0625, 0.0175
1420, -0.5, 0.125, 0.0175
1421, -0.4375, 0.125, 0.0175
1422, -0.375, 0.125, 0.0175
1423, -0.3125, 0.125, 0.0175
1424, -0.25, 0.125, 0.0175
1425, -0.1875, 0.125, 0.0175
1426, -0.125, 0.125, 0.0175
1427, -0.0625, 0.125, 0.0175
1428, 0, 0.125, 0.0175
1429, 0.0625, 0.125, 0.0175
1430, 0.125, 0.125, 0.0175
1431, 0.1875, 0.125, 0.0175
1432, 0.25, 0.125, 0.0175
1433, 0.3125, 0.125, 0.0175
1434, 0.375, 0.125, 0.0175
1435, 0.4375, 0.125, 0.0175
1436, 0.5, 0.125, 0.0175
1437, 0.5625, 0.125, 0.0175
1438, 0.625, 0.125, 0.0175
1439, 0.6875, 0.125, 0.0175
1440, 0.75, 0.125, 0.0175
1441, 0.8125, 0.125, 0.0175
1442, 0.875, 0.125, 0.0175
1443, 0.9375, 0.125, 0.0175
1444, 1, 0.125, 0.0175
1445, 1.0625, 0.125, 0.0175
1446, 1.125, 0.125, 0.0175
1447, 1.1875, 0.125, 0.0175
1448, 1.25, 0.125, 0.0175
1449, 1.3125, 0.125, 0.0175
1450, 1.375, 0.125, 0.0175
1451, 1.4375, 0.125, 0.0175
1452, 1.5, 0.125, 0.0175
1453, -0.5, 0.1875, 0.0175
1454, -0.4375, 0.1875, 0.0175
1455, -0.375, 0.1875, 0.0175
1456, -0.3125, 0.1875, 0.0175
1457, -0.25, 0.1875, 0.0175
1458, -0.1875, 0.1875, 0.0175
1459, -0.125, 0.1875, 0.0175
1460, -0.0625, 0.1875, 0.0175
1461, 0, 0.1875, 0.0175
1462, 0.0625, 0.1875, 0.0175
1463, 0.125, 0.1875, 0.0175
1464, 0.1875, 0.1875, 0.0175
1465, 0.25, 0.1875, 0.0175
1466, 0.3125, 0.1875, 0.0175
1467, 0.375, 0.1875, 0.0175
1468, 0.4375, 0.1875, 0.0175
1469, 0.5, 0.1875, 0.0175
1470, 0.5625, 0.1875, 0.0175
1471, 0.625, 0.1875, 0.0175
1472, 0.6875, 0.1875, 0.0175
1473, 0.75, 0.1875, 0.0175
1474, 0.8125, 0.1875, 0.0175
1475, 0.875, 0.1875, 0.0175
1476, 0.9375, 0.1875, 0.0175
1477, 1, 0.1875, 0.0175
1478, 1.0625, 0.1875, 0.0175
1479, 1.125, 0.1875, 0.0175
1480, 1.1875, 0.1875, 0.0175
1481, 1.25, 0.1875, 0.0175
1482, 1.3125, 0.1875, 0.0175
1483, 1.375, 0.1875, 0.0175
1484, 1.4375, 0.1875, 0.0175
1485, 1.5, 0.1875, 0.0175
1486, -0.5, 0.25, 0.0175
1487, -0.4375, 0.25, 0.0175
1488, -0.375, 0.25, 0.0175
1489, -0.3125, 0.25, 0.0175
1490, -0.25, 0.25, 0.0175
1491, -0.1875, 0.25, 0.0175
1492, -0.125, 0.25, 0.0175
1493, -0.0625, 0.25, 0.0175
1494, 0, 0.25, 0.0175
1495, 0.0625, 0.25, 0.0175
1496, 0.125, 0.25, 0.0175
1497, 0.1875, 0.25, 0.0175
1498, 0.25, 0.25, 0.0175
1499, 0.3125, 0.25, 0.0175
1500, 0.375, 0.25, 0.0175
1501, 0.4375, 0.25, 0.0175
1502, 0.5, 0.25, 0.0175
1503, 0.5625, 0.25, 0.0175
1504, 0.625, 0.25, 0.0175
1505, 0.6875, 0.25, 0.0175
1506, 0.75, 0.25, 0.0175
1507, 0.8125, 0.25, 0.0175
1508, 0.875, 0.25, 0.0175
1509, 0.9375, 0.25, 0.0175
1510, 1, 0.25, 0.0175
1511, 1.0625, 0.25, 0.0175
1512, 1.125, 0.25, 0.0175
1513, 1.1875, 0.25, 0.0175
1514, 1.25, 0.25, 0.0175
1515, 1.3125, 0.25, 0.0175
1516, 1.375, 0.25, 0.0175
1517, 1.4375, 0.25, 0.0175
1518, 1.5, 0.25, 0.0175
1519, -0.5, 0.3125, 0.0175
1520, -0.4375, 0.3125, 0.0175
1521, -0.375, 0.3125, 0.0175
1522, -0.3125, 0.3125, 0.0175
1523, -0.25, 0.3125, 0.0175
1524, -0.1875, 0.3125, 0.0175
1525, -0.125, 0.3125, 0.0175
1526, -0.0625, 0.3125, 0.0175
1527, 0, 0.3125, 0.0175
1528, 0.0625, 0.3125, 0.0175
1529, 0.125, 0.3125, 0.0175
1530, 0.1875, 0.3125, 0.0175
1531, 0.25, 0.3125, 0.0175
1532, 0.3125, 0.3125, 0.0175
1533, 0.375, 0.3125, 0.0175
1534, 0.4375, 0.3125, 0.0175
1535, 0.5, 0.3125, 0.0175
1536, 0.5625, 0.3125, 0.0175
1537, 0.625, 0.3125, 0.0175
1538, 0.6875, 0.3125, 0.0175
1539, 0.75, 0.3125, 0.0175
1540, 0.8125, 0.3125, 0.0175
1541, 0.875, 0.3125, 0.0175
1542, 0.9375, 0.3125, 0.0175
1543, 1, 0.3125, 0.0175
1544, 1.0625, 0.3125, 0.0175
1545, 1.125, 0.3125, 0.0175
1546, 1.1875, 0.3125, 0.0175
1547, 1.25, 0.3125, 0.0175
1548, 1.3125, 0.3125, 0.0175
1549, 1.375, 0.3125, 0.0175
1550, 1.4375, 0.3125, 0.0175
1551, 1.5, 0.3125, 0.0175
1552, -0.5, 0.375, 0.0175
1553, -0.4375, 0.375, 0.0175
1554, -0.375, 0.375, 0.0175
1555, -0.3125, 0.375, 0.0175
1556, -0.25, 0.375, 0.0175
1557, -0.1875, 0.375, 0.0175
1558, -0.125, 0.375, 0.0175
1559, -0.0625, 0.375, 0.0175
1560, 0, 0.375, 0.0175
1561, 0.0625, 0.375, 0.0175
1562, 0.125, 0.375, 0.0175
1563, 0.1875, 0.375, 0.0175
1564, 0.25, 0.375, 0.0175
1565, 0.3125, 0.375, 0.0175
1566, 0.375, 0.375, 0.0175
1567, 0.4375, 0.375, 0.0175
1568, 0.5, 0.375, 0.0175
1569, 0.5625, 0.375, 0.0175
1570, 0.625, 0.375, 0.0175
1571, 0.6875, 0.375, 0.0175
1572, 0.75, 0.375, 0.0175
1573, 0.8125, 0.375, 0.0175
1574, 0.875, 0.375, 0.0175
1575, 0.9375, 0.375, 0.0175
1576, 1, 0.375, 0.0175
1577, 1.0625, 0.375, 0.0175
1578, 1.125, 0.375, 0.0175
1579, 1.1875, 0.375, 0.0175
1580, 1.25, 0.375, 0.0175
1581, 1.3125, 0.375, 0.0175
1582, 1.375, 0.375, 0.0175
1583, 1.4375, 0.375, 0.0175
1584, 1.5, 0.375, 0.0175
1585, -0.5, 0.4375, 0.0175
1586, -0.4375, 0.4375, 0.0175
1587, -0.375, 0.4375, 0.0175
1588, -0.3125, 0.4375, 0.0175
1589, -0.25, 0.4375, 0.0175
1590, -0.1875, 0.4375, 0.0175
1591, -0.125, 0.4375, 0.0175
1592, -0.0625, 0.4375, 0.0175
1593, 0, 0.4375, 0.0175
1594, 0.0625, 0.4375, 0.0175
1595, 0.125, 0.4375, 0.0175
1596, 0.1875, 0.4375, 0.0175
1597, 0.25, 0.4375, 0.0175
1598, 0.3125, 0.4375, 0.0175
1599, 0.375, 0.4375, 0.0175
1600, 0.4375, 0.4375, 0.0175
1601, 0.5, 0.4375, 0.0175
1602, 0.5625, 0.4375, 0.0175
1603, 0.625, 0.4375, 0.0175
1604, 0.6875, 0.4375, 0.0175
1605, 0.75, 0.4375, 0.0175
1606, 0.8125, 0.4375, 0.0175
1607, 0.875, 0.4375, 0.0175
1608, 0.9375, 0.4375, 0.0175
1609, 1, 0.4375, 0.0175
1610, 1.0625, 0.4375, 0.0175
1611, 1.125, 0.4375, 0.0175
1612, 1.1875, 0.4375, 0.0175
1613, 1.25, 0.4375, 0.0175
1614, 1.3125, 0.4375, 0.0175
1615, 1.375, 0.4375, 0.0175
1616, 1.4375, 0.4375, 0.0175
1617, 1.5, 0.4375, 0.0175
1618, -0.5, 0.5, 0.0175
1619, -0.4375, 0.5, 0.0175
1620, -0.375, 0.5, 0.0175
1621, -0.3125, 0.5, 0.0175
1622, -0.25, 0.5, 0.0175
1623, -0.1875, 0.5, 0.0175
1624, -0.125, 0.5, 0.0175
1625, -0.0625, 0.5, 0.0175
1626, 0, 0.5, 0.0175
1627, 0.0625, 0.5, 0.0175
1628, 0.125, 0.5, 0.0175
1629, 0.1875, 0.5, 0.0175
1630, 0.25, 0.5, 0.0175
1631, 0.3125, 0.5, 0.0175
1632, 0.375, 0.5, 0.0175
1633, 0.4375, 0.5, 0.0175
1634, 0.5, 0.5, 0.0175
1635, 0.5625, 0.5, 0.0175
1636, 0.625, 0.5, 0.0175
1637, 0.6875, 0.5, 0.0175
1638, 0.75, 0.5, 0.0175
1639, 0.8125, 0.5, 0.0175
1640, 0.875, 0.5, 0.0175
1641, 0.9375, 0.5, 0.0175
1642, 1, 0.5, 0.0175
1643, 1.0625, 0.5, 0.0175
1644, 1.125, 0.5, 0.0175
1645, 1.1875, 0.5, 0.0175
1646, 1.25, 0.5, 0.0175
1647, 1.3125, 0.5, 0.0175
1648, 1.375, 0.5, 0.0175
1649, 1.4375, 0.5, 0.0175
1650, 1.5, 0.5, 0.0175
1651, -0.5, 0.5625, 0.0175
1652, -0.4375, 0.5625, 0.0175
1653, -0.375, 0.5625, 0.0175
1654, -0.3125, 0.5625, 0.0175
1655, -0.25, 0.5625, 0.0175
1656, -0.1875, 0.5625, 0.0175
1657, -0.125, 0.5625, 0.0175
1658, -0.0625, 0.5625, 0.0175
1659, 0, 0.5625, 0.0175
1660, 0.0625, 0.5625, 0.0175
1661, 0.125, 0.5625, 0.0175
1662, 0.1875, 0.5625, 0.0175
1663, 0.25, 0.5625, 0.0175
1664, 0.3125, 0.5625, 0.0175
1665, 0.375, 0.5625, 0.0175
1666, 0.4375, 0.5625, 0.0175
1667, 0.5, 0.5625, 0.0175
1668, 0.5625, 0.5625, 0.0175
1669, 0.625, 0.5625, 0.0175
1670, 0.6875, 0.5625, 0.0175
1671, 0.75, 0.5625, 0.0175
1672, 0.8125, 0.5625, 0.0175
1673, 0.875, 0.5625, 0.0175
1674, 0.9375, 0.5625, 0.0175
1675, 1, 0.5625, 0.0175
1676, 1.0625, 0.5625, 0.0175
1677, 1.125, 0.5625, 0.0175
1678, 1.1875, 0.5625, 0.0175
1679, 1.25, 0.5625, 0.0175
1680, 1.3125, 0.5625, 0.0175
1681, 1.375, 0.5625, 0.0175
1682, 1.4375, 0.5625, 0.0175
1683, 1.5, 0.5625, 0.0175
1684, -0.5, 0.625, 0.0175
1685, -0.4375, 0.625, 0.0175
1686, -0.375, 0.625, 0.0175
1687, -0.3125, 0.625, 0.0175
1688, -0.25, 0.625, 0.0175
1689, -0.1875, 0.625, 0.0175
1690, -0.125, 0.625, 0.0175
1691, -0.0625, 0.625, 0.0175
1692, 0, 0.625, 0.0175
1693, 0.0625, 0.625, 0.0175
1694, 0.125, 0.625, 0.0175
1695, 0.1875, 0.625, 0.0175
1696, 0.25, 0.625, 0.0175
1697, 0.3125, 0.625, 0.0175
1698, 0.375, 0.625, 0.0175
1699, 0.4375, 0.625, 0.0175
1700, 0.5, 0.625, 0.0175
1701, 0.5625, 0.625, 0.0175
1702, 0.625, 0.625, 0.0175
1703, 0.6875, 0.625, 0.0175
1704, 0.75, 0.625, 0.0175
1705, 0.8125, 0.625, 0.0175
1706, 0.875, 0.625, 0.0175
1707, 0.9375, 0.625, 0.0175
1708, 1, 0.625, 0.0175
1709, 1.0625, 0.625, 0.0175
1710, 1.125, 0.625, 0.0175
1711, 1.1875, 0.625, 0.0175
1712, 1.25, 0.625, 0.0175
1713, 1.3125, 0.625, 0.0175
1714, 1.375, 0.625, 0.0175
1715, 1.4375, 0.625, 0.0175
1716, 1.5, 0.625, 0.0175
1717, -0.5, 0.6875, 0.0175
1718, -0.4375, 0.6875, 0.0175
1719, -0.375, 0.6875, 0.0175
1720, -0.3125, 0.6875, 0.0175
1721, -0.25, 0.6875, 0.0175
1722, -0.1875, 0.6875, 0.0175
1723, -0.125, 0.6875, 0.0175
1724, -0.0625, 0.6875, 0.0175
1725, 0, 0.6875, 0.0175
1726, 0.0625, 0.6875, 0.0175
1727, 0.125, 0.6875, 0.0175
1728, 0.1875, 0.6875, 0.0175
1729, 0.25, 0.6875, 0.0175
1730, 0.3125, 0.6875, 0.0175
1731, 0.375, 0.6875, 0.0175
1732, 0.4375, 0.6875, 0.0175
1733, 0.5, 0.6875, 0.0175
1734, 0.5625, 0.6875, 0.0175
1735, 0.625, 0.6875, 0.0175
1736, 0.6875, 0.6875, 0.0175
1737, 0.75, 0.6875, 0.0175
1738, 0.8125, 0.6875, 0.0175
1739, 0.875, 0.6875, 0.0175
1740, 0.9375, 0.6875, 0.0175
1741, 1, 0.6875, 0.0175
1742, 1.0625, 0.6875, 0.0175
1743, 1.125, 0.6875, 0.0175
1744, 1.1875, 0.6875, 0.0175
1745, 1.25, 0.6875, 0.0175
1746, 1.3125, 0.6875, 0.0175
1747, 1.375, 0.6875, 0.0175
1748, 1.4375, 0.6875, 0.0175
1749, 1.5, 0.6875, 0.0175
1750, -0.5, 0.75, 0.0175
1751, -0.4375, 0.75, 0.0175
1752, -0.375, 0.75, 0.0175
1753, -0.3125, 0.75, 0.0175
1754, -0.25, 0.75, 0.0175
1755, -0.1875, 0.75, 0.0175
1756, -0.125, 0.75, 0.0175
1757, -0.0625, 0.75, 0.0175
1758, 0, 0.75, 0.0175
1759, 0.0625, 0.75, 0.0175
1760, 0.125, 0.75, 0.0175
1761, 0.1875, 0.75, 0.0175
1762, 0.25, 0.75, 0.0175
1763, 0.3125, 0.75, 0.0175
1764, 0.375, 0.75, 0.0175
1765, 0.4375, 0.75, 0.0175
1766, 0.5, 0.75, 0.0175
1767, 0.5625, 0.75, 0.0175
1768, 0.625, 0.75, 0.0175
1769, 0.6875, 0.75, 0.0175
1770, 0.75, 0.75, 0.0175
1771, 0.8125, 0.75, 0.0175
1772, 0.875, 0.75, 0.0175
1773, 0.9375, 0.75, 0.0175
1774, 1, 0.75, 0.0175
1775, 1.0625, 0.75, 0.0175
1776, 1.125, 0.75, 0.0175
1777, 1.1875, 0.75, 0.0175
1778, 1.25, 0.75, 0.0175
1779, 1.3125, 0.75, 0.0175
1780, 1.375, 0.75, 0.0175
1781, 1.4375, 0.75, 0.0175
1782, 1.5, 0.75, 0.0175
1783, -0.5, 0.8125, 0.0175
1784, -0.4375, 0.8125, 0.0175
1785, -0.375, 0.8125, 0.0175
1786, -0.3125, 0.8125, 0.0175
1787, -0.25, 0.8125, 0.0175
1788, -0.1875, 0.8125, 0.0175
1789, -0.125, 0.8125, 0.0175
1790, -0.0625, 0.8125, 0.0175
1791, 0, 0.8125, 0.0175
1792, 0.0625, 0.8125, 0.0175
1793, 0.125, 0.8125, 0.0175
1794, 0.1875, 0.8125, 0.0175
1795, 0.25, 0.8125, 0.0175
1796, 0.3125, 0.8125, 0.0175
1797, 0.375, 0.8125, 0.0175
1798, 0.4375, 0.8125, 0.0175
1799, 0.5, 0.8125, 0.0175
1800, 0.5625, 0.8125, 0.0175
1801, 0.625, 0.8125, 0.0175
1802, 0.6875, 0.8125, 0.0175
1803, 0.75, 0.8125, 0.0175
1804, 0.8125, 0.8125, 0.0175
1805, 0.875, 0.8125, 0.0175
1806, 0.9375, 0.8125, 0.0175
1807, 1, 0.8125, 0.0175
1808, 1.0625, 0.8125, 0.0175
1809, 1.125, 0.8125, 0.0175
1810, 1.1875, 0.8125, 0.0175
1811, 1.25, 0.8125, 0.0175
1812, 1.3125, 0.8125, 0.0175
1813, 1.375, 0.8125, 0.0175
1814, 1.4375, 0.8125, 0.0175
1815, 1.5, 0.8125, 0.0175
1816, -0.5, 0.875, 0.0175
1817, -0.4375, 0.875, 0.0175
1818, -0.375, 0.875, 0.0175
1819, -0.3125, 0.875, 0.0175
1820, -0.25, 0.875, 0.0175
1821, -0.1875, 0.875, 0.0175
1822, -0.125, 0.875, 0.0175
1823, -0.0625, 0.875, 0.0175
1824, 0, 0.875, 0.0175
1825, 0.0625, 0.875, 0.0175
1826, 0.125, 0.875, 0.0175
1827, 0.1875, 0.875, 0.0175
1828, 0.25, 0.875, 0.0175
1829, 0.3125, 0.875, 0.0175
1830, 0.375, 0.875, 0.0175
1831, 0.4375, 0.875, 0.0175
1832, 0.5, 0.875, 0.0175
1833, 0.5625, 0.875, 0.0175
1834, 0.625, 0.875, 0.0175
1835, 0.6875, 0.875, 0.0175
1836, 0.75, 0.875, 0.0175
1837, 0.8125, 0.875, 0.0175
1838, 0.875, 0.875, 0.0175
1839, 0.9375, 0.875, 0.0175
1840, 1, 0.875, 0.0175
1841, 1.0625, 0.875, 0.0175
1842, 1.125, 0.875, 0.0175
1843, 1.1875, 0.875, 0.0175
1844, 1.25, 0.875, 0.0175
1845, 1.3125, 0.875, 0.0175
1846, 1.375, 0.875, 0.0175
1847, 1.4375, 0.875, 0.0175
1848, 1.5, 0.875, 0.0175
1849, -0.5, 0.9375, 0.0175
1850, -0.4375, 0.9375, 0.0175
1851, -0.375, 0.9375, 0.0175
1852, -0.3125, 0.9375, 0.0175
1853, -0.25, 0.9375, 0.0175
1854, -0.1875, 0.9375, 0.0175
1855, -0.125, 0.9375, 0.0175
1856, -0.0625, 0.9375, 0.0175
1857, 0, 0.9375, 0.0175
1858, 0.0625, 0.9375, 0.0175
1859, 0.125, 0.9375, 0.0175
1860, 0.1875, 0.9375, 0.0175
1861, 0.25, 0.9375, 0.0175
1862, 0.3125, 0.9375, 0.0175
1863, 0.375, 0.9375, 0.0175
1864, 0.4375, 0.9375, 0.0175
1865, 0.5, 0.9375, 0.0175
1866, 0.5625, 0.9375, 0.0175
1867, 0.625, 0.9375, 0.0175
1868, 0.6875, 0.9375, 0.0175
1869, 0.75, 0.9375, 0.0175
1870, 0.8125, 0.9375, 0.0175
1871, 0.875, 0.9375, 0.0175
1872, 0.9375, 0.9375, 0.0175
1873, 1, 0.9375, 0.0175
1874, 1.0625, 0.9375, 0.0175
1875, 1.125, 0.9375, 0.0175
1876, 1.1875, 0.9375, 0.0175
1877, 1.25, 0.9375, 0.0175
1878, 1.3125, 0.9375, 0.0175
1879, 1.375, 0.9375, 0.0175
1880, 1.4375, 0.9375, 0.0175
1881, 1.5, 0.9375, 0.0175
1882, -0.5, 1, 0.0175
1883, -0.4375, 1, 0.0175
1884, -0.375, 1, 0.0175
1885, -0.3125, 1, 0.0175
1886, -0.25, 1, 0.0175
1887, -0.1875, 1, 0.0175
1888, -0.125, 1, 0.0175
1889, -0.0625, 1, 0.0175
1890, 0, 1, 0.0175
1891, 0.0625, 1, 0.0175
1892, 0.125, 1, 0.0175
1893, 0.1875, 1, 0.0175
1894, 0.25, 1, 0.0175
1895, 0.3125, 1, 0.0175
1896, 0.375, 1, 0.0175
1897, 0.4375, 1, 0.0175
1898, 0.5, 1, 0.0175
1899, 0.5625, 1, 0.0175
1900, 0.625, 1, 0.0175
1901, 0.6875, 1, 0.0175
1902, 0.75, 1, 0.0175
1903, 0.8125, 1, 0.0175
1904, 0.875, 1, 0.0175
1905, 0.9375, 1, 0.0175
1906, 1, 1, 0.0175
1907, 1.0625, 1, 0.0175
1908, 1.125, 1, 0.0175
1909, 1.1875, 1, 0.0175
1910, 1.25, 1, 0.0175
1911, 1.3125, 1, 0.0175
1912, 1.375, 1, 0.0175
1913, 1.4375, 1, 0.0175
1914, 1.5, 1, 0.0175
1915, -0.5, 1.0625, 0.0175
1916, -0.4375, 1.0625, 0.0175
1917, -0.375, 1.0625, 0.0175
1918, -0.3125, 1.0625, 0.0175
1919, -0.25, 1.0625, 0.0175
1920, -0.1875, 1.0625, 0.0175
1921, -0.125, 1.0625, 0.0175
1922, -0.0625, 1.0625, 0.0175
1923, 0, 1.0625, 0.0175
1924, 0.0625, 1.0625, 0.0175
1925, 0.125, 1.0625, 0.0175
1926, 0.1875, 1.0625, 0.0175
1927, 0.25, 1.0625, 0.0175
1928, 0.3125, 1.0625, 0.0175
1929, 0.375, 1.0625, 0.0175
1930, 0.4375, 1.0625, 0.0175
1931, 0.5, 1.0625, 0.0175
1932, 0.5625, 1.0625, 0.0175
1933, 0.625, 1.0625, 0.0175
1934, 0.6875, 1.0625, 0.0175
1935, 0.75, 1.0625, 0.0175
1936, 0.8125, 1.0625, 0.0175
1937, 0.875, 1.0625, 0.0175
1938, 0.9375, 1.0625, 0.0175
1939, 1, 1.0625, 0.0175
1940, 1.0625, 1.0625, 0.0175
1941, 1.125, 1.0625, 0.0175
1942, 1.1875, 1.0625, 0.0175
1943, 1.25, 1.0625, 0.0175
1944, 1.3125, 1.0625, 0.0175
1945, 1.375, 1.0625, 0.0175
1946, 1.4375, 1.0625, 0.0175
1947, 1.5, 1.0625, 0.0175
1948, -0.5, 1.125, 0.0175
1949, -0.4375, 1.125, 0.0175
1950, -0.375, 1.125, 0.0175
1951, -0.3125, 1.125, 0.0175
1952, -0.25, 1.125, 0.0175
1953, -0.1875, 1.125, 0.0175
1954, -0.125, 1.125, 0.0175
1955, -0.0625, 1.125, 0.0175
1956, 0, 1.125, 0.0175
1957, 0.0625, 1.125, 0.0175
1958, 0.125, 1.125, 0.0175
1959, 0.1875, 1.125, 0.0175
1960, 0.25, 1.125, 0.0175
1961, 0.3125, 1.125, 0.0175
1962, 0.375, 1.125, 0.0175
1963, 0.4375, 1.125, 0.0175
1964, 0.5, 1.125, 0.0175
1965, 0.5625, 1.125, 0.0175
1966, 0.625, 1.125, 0.0175
1967, 0.6875, 1.125, 0.0175
1968, 0.75, 1.125, 0.0175
1969, 0.8125, 1.125, 0.0175
1970, 0.875, 1.125, 0.0175
1971, 0.9375, 1.125, 0.0175
1972, 1, 1.125, 0.0175
1973, 1.0625, 1.125, 0.0175
1974, 1.125, 1.125, 0.0175
1975, 1.1875, 1.125, 0.0175
1976, 1.25, 1.125, 0.0175
1977, 1.3125, 1.125, 0.0175
1978, 1.375, 1.125, 0.0175
1979, 1.4375, 1.125, 0.0175
1980, 1.5, 1.125, 0.0175
1981, -0.5, 1.1875, 0.0175
1982, -0.4375, 1.1875, 0.0175
1983, -0.375, 1.1875, 0.0175
1984, -0.3125, 1.1875, 0.0175
1985, -0.25, 1.1875, 0.0175
1986, -0.1875, 1.1875, 0.0175
1987, -0.125, 1.1875, 0.0175
1988, -0.0625, 1.1875, 0.0175
1989, 0, 1.1875, 0.0175
1990, 0.0625, 1.1875, 0.0175
1991, 0.125, 1.1875, 0.0175
1992, 0.1875, 1.1875, 0.0175
1993, 0.25, 1.1875, 0.0175
1994, 0.3125, 1.1875, 0.0175
1995, 0.375, 1.1875, 0.0175
1996, 0.4375, 1.1875, 0.0175
1997, 0.5, 1.1875, 0.0175
1998, 0.5625, 1.1875, 0.0175
1999, 0.625, 1.1875, 0.0175
2000, 0.6875, 1.1875, 0.0175
2001, 0.75, 1.1875, 0.0175
2002, 0.8125, 1.1875, 0.0175
2003, 0.875, 1.1875, 0.0175
2004, 0.9375, 1.1875, 0.0175
2005, 1, 1.1875, 0.0175
2006, 1.0625, 1.1875, 0.0175
2007, 1.125, 1.1875, 0.0175
2008, 1.1875, 1.1875, 0.0175
2009, 1.25, 1.1875, 0.0175
2010, 1.3125, 1.1875, 0.0175
2011, 1.375, 1.1875, 0.0175
2012, 1.4375, 1.1875, 0.0175
2013, 1.5, 1.1875, 0.0175
2014, -0.5, 1.25, 0.0175
2015, -0.4375, 1.25, 0.0175
2016, -0.375, 1.25, 0.0175
2017, -0.3125, 1.25, 0.0175
2018, -0.25, 1.25, 0.0175
2019, -0.1875, 1.25, 0.0175
2020, -0.125, 1.25, 0.0175
2021, -0.0625, 1.25, 0.0175
2022, 0, 1.25, 0.0175
2023, 0.0625, 1.25, 0.0175
2024, 0.125, 1.25, 0.0175
2025, 0.1875, 1.25, 0.0175
2026, 0.25, 1.25, 0.0175
2027, 0.3125, 1.25, 0.0175
2028, 0.375, 1.25, 0.0175
2029, 0.4375, 1.25, 0.0175
2030, 0.5, 1.25, 0.0175
2031, 0.5625, 1.25, 0.0175
2032, 0.625, 1.25, 0.0175
2033, 0.6875, 1.25, 0.0175
2034, 0.75, 1.25, 0.0175
2035, 0.8125, 1.25, 0.0175
2036, 0.875, 1.25, 0.0175
2037, 0.9375, 1.25, 0.0175
2038, 1, 1.25, 0.0175
2039, 1.0625, 1.25, 0.0175
2040, 1.125, 1.25, 0.0175
2041, 1.1875, 1.25, 0.0175
2042, 1.25, 1.25, 0.0175
2043, 1.3125, 1.25, 0.0175
2044, 1.375, 1.25, 0.0175
2045, 1.4375, 1.25, 0.0175
2046, 1.5, 1.25, 0.0175
2047, -0.5, 1.3125, 0.0175
2048, -0.4375, 1.3125, 0.0175
2049, -0.375, 1.3125, 0.0175
2050, -0.3125, 1.3125, 0.0175
2051, -0.25, 1.3125, 0.0175
2052, -0.1875, 1.3125, 0.0175
2053, -0.125, 1.3125, 0.0175
2054, -0.0625, 1.3125, 0.0175
2055, 0, 1.3125, 0.0175
2056, 0.0625, 1.3125, 0.0175
2057, 0.125, 1.3125, 0.0175
2058, 0.1875, 1.3125, 0.0175
2059, 0.25, 1.3125, 0.0175
2060, 0.3125, 1.3125, 0.0175
2061, 0.375, 1.3125, 0.0175
2062, 0.4375, 1.3125, 0.0175
2063, 0.5, 1.3125, 0.0175
2064, 0.5625, 1.3125, 0.0175
2065, 0.625, 1.3125, 0.0175
2066, 0.6875, 1.3125, 0.0175
2067, 0.75, 1.3125, 0.0175
2068, 0.8125, 1.3125, 0.0175
2069, 0.875, 1.3125, 0.0175
2070, 0.9375, 1.3125, 0.0175
2071, 1, 1.3125, 0.0175
2072, 1.0625, 1.3125, 0.0175
2073, 1.125, 1.3125, 0.0175
2074, 1.1875, 1.3125, 0.0175
2075, 1.25, 1.3125, 0.0175
2076, 1.3125, 1.3125, 0.0175
2077, 1.375, 1.3125, 0.0175
2078, 1.4375, 1.3125, 0.0175
2079, 1.5, 1.3125, 0.0175
2080, -0.5, 1.375, 0.0175
2081, -0.4375, 1.375, 0.0175
2082, -0.375, 1.375, 0.0175
2083, -0.3125, 1.375, 0.0175
2084, -0.25, 1.375, 0.0175
2085, -0.1875, 1.375, 0.0175
2086, -0.125, 1.375, 0.0175
2087, -0.0625, 1.375, 0.0175
2088, 0, 1.375, 0.0175
2089, 0.0625, 1.375, 0.0175
2090, 0.125, 1.375, 0.0175
2091, 0.1875, 1.375, 0.0175
2092, 0.25, 1.375, 0.0175
2093, 0.3125, 1.375, 0.0175
2094, 0.375, 1.375, 0.0175
2095, 0.4375, 1.375, 0.0175
2096, 0.5, 1.375, 0.0175
2097, 0.5625, 1.375, 0.0175
2098, 0.625, 1.375, 0.0175
2099, 0.6875, 1.375, 0.0175
2100, 0.75, 1.375, 0.0175
2101, 0.8125, 1.375, 0.0175
2102, 0.875, 1.375, 0.0175
2103, 0.9375, 1.375, 0.0175
2104, 1, 1.375, 0.0175
2105, 1.0625, 1.375, 0.0175
2106, 1.125, 1.375, 0.0175
2107, 1.1875, 1.375, 0.0175
2108, 1.25, 1.375, 0.0175
2109, 1.3125, 1.375, 0.0175
2110, 1.375, 1.375, 0.0175
2111, 1.4375, 1.375, 0.0175
2112, 1.5, 1.375, 0.0175
2113, -0.5, 1.4375, 0.0175
2114, -0.4375, 1.4375, 0.0175
2115, -0.375, 1.4375, 0.0175
2116, -0.3125, 1.4375, 0.0175
2117, -0.25, 1.4375, 0.0175
2118, -0.1875, 1.4375, 0.0175
2119, -0.125, 1.4375, 0.0175
2120, -0.0625, 1.4375, 0.0175
2121, 0, 1.4375, 0.0175
2122, 0.0625, 1.4375, 0.0175
2123, 0.125, 1.4375, 0.0175
2124, 0.1875, 1.4375, 0.0175
2125, 0.25, 1.4375, 0.0175
2126, 0.3125, 1.4375, 0.0175
2127, 0.375, 1.4375, 0.0175
2128, 0.4375, 1.4375, 0.0175
2129, 0.5, 1.4375, 0.0175
2130, 0.5625, 1.4375, 0.0175
2131, 0.625, 1.4375, 0.0175
2132, 0.6875, 1.4375, 0.0175
2133, 0.75, 1.4375, 0.0175
2134, 0.8125, 1.4375, 0.0175
2135, 0.875, 1.4375, 0.0175
2136, 0.9375, 1.4375, 0.0175
2137, 1, 1.4375, 0.0175
2138, 1.0625, 1.4375, 0.0175
2139, 1.125, 1.4375, 0.0175
2140, 1.1875, 1.4375, 0.0175
2141, 1.25, 1.4375, 0.0175
2142, 1.3125, 1.4375, 0.0175
2143, 1.375, 1.4375, 0.0175
2144, 1.4375, 1.4375, 0.0175
2145, 1.5, 1.4375, 0.0175
2146, -0.5, 1.5, 0.0175
2147, -0.4375, 1.5, 0.0175
2148, -0.375, 1.5, 0.0175
2149, -0.3125, 1.5, 0.0175
2150, -0.25, 1.5, 0.0175
2151, -0.1875, 1.5, 0.0175
2152, -0.125, 1.5, 0.0175
2153, -0.0625, 1.5, 0.0175
2154, 0, 1.5, 0.0175
2155, 0.0625, 1.5, 0.0175
2156, 0.125, 1.5, 0.0175
2157, 0.1875, 1.5, 0.0175
2158, 0.25, 1.5, 0.0175
2159, 0.3125, 1.5, 0.0175
2160, 0.375, 1.5, 0.0175
2161, 0.4375, 1.5, 0.0175
2162, 0.5, 1.5, 0.0175
2163, 0.5625, 1.5, 0.0175
2164, 0.625, 1.5, 0.0175
2165, 0.6875, 1.5, 0.0175
2166, 0.75, 1.5, 0.0175
2167, 0.8125, 1.5, 0.0175
2168, 0.875, 1.5, 0.0175
2169, 0.9375, 1.5, 0.0175
2170, 1, 1.5, 0.0175
2171, 1.0625, 1.5, 0.0175
2172, 1.125, 1.5, 0.0175
2173, 1.1875, 1.5, 0.0175
2174, 1.25, 1.5, 0.0175
2175, 1.3125, 1.5, 0.0175
2176, 1.375, 1.5, 0.0175
2177, 1.4375, 1.5, 0.0175
2178, 1.5, 1.5, 0.0175
2179, -0.5, -0.5, 0.045
2180, -0.4375, -0.5, 0.045
2181, -0.375, -0.5, 0.045
2182, -0.3125, -0.5, 0.045
2183, -0.25, -0.5, 0.045
2184, -0.1875, -0.5, 0.045
2185, -0.125, -0.5, 0.045
2186, -0.0625, -0.5, 0.045
2187, 0, -0.5, 0.045
2188, 0.0625, -0.5, 0.045
2189, 0.125, -0.5, 0.045
2190, 0.1875, -0.5, 0.045
2191, 0.25, -0.5, 0.045
2192, 0.3125, -0.5, 0.045
2193, 0.375, -0.5, 0.045
2194, 0.4375, -0.5, 0.045
2195, 0.5, -0.5, 0.045
2196, 0.5625, -0.5, 0.045
2197, 0.625, -0.5, 0.045
2198, 0.6875, -0.5, 0.045
2199, 0.75, -0.5, 0.045
2200, 0.8125, -0.5, 0.045
2201, 0.875, -0.5, 0.045
2202, 0.9375, -0.5, 0.045
2203, 1, -0.5, 0.045
2204, 1.0625, -0.5, 0.045
2205, 1.125, -0.5, 0.045
2206, 1.1875, -0.5, 0.045
2207, 1.25, -0.5, 0.045
2208, 1.3125, -0.5, 0.045
2209, 1.375, -0.5, 0.045
2210, 1.4375, -0.5, 0.045
2211, 1.5, -0.5, 0.045
2212, -0.5, -0.4375, 0.045
2213, -0.4375, -0.4375, 0.045
2214, -0.375, -0.4375, 0.045
2215, -0.3125, -0.4375, 0.045
2216, -0.25, -0.4375, 0.045
2217, -0.1875, -0.4375, 0.045
2218, -0.125, -0.4375, 0.045
2219, -0.0625, -0.4375, 0.045
2220, 0, -0.4375, 0.045
2221, 0.0625, -0.4375, 0.045
2222, 0.125, -0.4375, 0.045
2223, 0.1875, -0.4375, 0.045
2224, 0.25, -0.4375, 0.045
2225, 0.3125, -0.4375, 0.045
2226, 0.375, -0.4375, 0.045
2227, 0.4375, -0.4375, 0.045
2228, 0.5, -0.4375, 0.045
2229, 0.5625, -0.4375, 0.045
2230, 0.625, -0.4375, 0.045
2231, 0.6875, -0.4375, 0.045
2232, 0.75, -0.4375, 0.045
2233, 0.8125, -0.4375, 0.045
2234, 0.875, -0.4375, 0.045
2235, 0.9375, -0.4375, 0.045
2236, 1, -0.4375, 0.045
2237, 1.0625, -0.4375, 0.045
2238, 1.125, -0.4375, 0.045
2239, 1.1875, -0.4375, 0.045
2240, 1.25, -0.4375, 0.045
2241, 1.3125, -0.4375, 0.045
2242, 1.375, -0.4375, 0.045
2243, 1.4375, -0.4375, 0.045
2244, 1.5, -0.4375, 0.045
2245, -0.5, -0.375, 0.045
2246, -0.4375, -0.375, 0.045
2247, -0.375, -0.375, 0.045
2248, -0.3125, -0.375, 0.045
2249, -0.25, -0.375, 0.045
2250, -0.1875, -0.375, 0.045
2251, -0.125, -0.375, 0.045
2252, -0.0625, -0.375, 0.045
2253, 0, -0.375, 0.045
2254, 0.0625, -0.375, 0.045
2255, 0.125, -0.375, 0.045
2256, 0.1875, -0.375, 0.045
2257, 0.25, -0.375, 0.045
2258, 0.3125, -0.375, 0.045
2259, 0.375, -0.375, 0.045
2260, 0.4375, -0.375, 0.045
2261, 0.5, -0.375, 0.045
2262, 0.5625, -0.375, 0.045
2263, 0.625, -0.375, 0.045
2264, 0.6875, -0.375, 0.045
2265, 0.75, -0.375, 0.045
2266, 0.8125, -0.375, 0.045
2267, 0.875, -0.375, 0.045
2268, 0.9375, -0.375, 0.045
2269, 1, -0.375, 0.045
2270, 1.0625, -0.375, 0.045
2271, 1.125, -0.375, 0.045
2272, 1.1875, -0.375, 0.045
2273, 1.25, -0.375, 0.045
2274, 1.3125, -0.375, 0.045
2275, 1.375, -0.375, 0.045
2276, 1.4375, -0.375, 0.045
2277, 1.5, -0.375, 0.045
2278, -0.5, -0.3125, 0.045
2279, -0.4375, -0.3125, 0.045
2280, -0.375, -0.3125, 0.045
2281, -0.3125, -0.3125, 0.045
2282, -0.25, -0.3125, 0.045
2283, -0.1875, -0.3125, 0.045
2284, -0.125, -0.3125, 0.045
2285, -0.0625, -0.3125, 0.045
2286, 0, -0.3125, 0.045
2287, 0.0625, -0.3125, 0.045
2288, 0.125, -0.3125, 0.045
2289, 0.1875, -0.3125, 0.045
2290, 0.25, -0.3125, 0.045
2291, 0.3125, -0.3125, 0.045
2292, 0.375, -0.3125, 0.045
2293, 0.4375, -0.3125, 0.045
2294, 0.5, -0.3125, 0.045
2295, 0.5625, -0.3125, 0.045
2296, 0.625, -0.3125, 0.045
2297, 0.6875, -0.3125, 0.045
2298, 0.75, -0.3125, 0.045
2299, 0.8125, -0.3125, 0.045
2300, 0.875, -0.3125, 0.045
2301, 0.9375, -0.3125, 0.045
2302, 1, -0.3125, 0.045
2303, 1.0625, -0.3125, 0.045
2304, 1.125, -0.3125, 0.045
2305, 1.1875, -0.3125, 0.045
2306, 1.25, -0.3125, 0.045
2307, 1.3125, -0.3125, 0.045
2308, 1.375, -0.3125, 0.045
2309, 1.4375, -0.3125, 0.045
2310, 1.5, -0.3125, 0.045
2311, -0.5, -0.25, 0.045
2312, -0.4375, -0.25, 0.045
2313, -0.375, -0.25, 0.045
2314, -0.3125, -0.25, 0.045
2315, -0.25, -0.25, 0.045
2316, -0.1875, -0.25, 0.045
2317, -0.125, -0.25, 0.045
2318, -0.0625, -0.25, 0.045
2319, 0, -0.25, 0.045
2320, 0.0625, -0.25, 0.045
2321, 0.125, -0.25, 0.045
2322, 0.1875, -0.25, 0.045
2323, 0.25, -0.25, 0.045
2324, 0.3125, -0.25, 0.045
2325, 0.375, -0.25, 0.045
2326, 0.4375, -0.25, 0.045
2327, 0.5, -0.25, 0.045
2328, 0.5625, -0.25, 0.045
2329, 0.625, -0.25, 0.045
2330, 0.6875, -0.25, 0.045
2331, 0.75, -0.25, 0.045
2332, 0.8125, -0.25, 0.045
2333, 0.875, -0.25, 0.045
2334, 0.9375, -0.25, 0.045
2335, 1, -0.25, 0.045
2336, 1.0625, -0.25, 0.045
2337, 1.125, -0.25, 0.045
2338, 1.1875, -0.25, 0.045
2339, 1.25, -0.25, 0.045
2340, 1.3125, -0.25, 0.045
2341, 1.375, -0.25, 0.045
2342, 1.4375, -0.25, 0.045
2343, 1.5, -0.25, 0.045
2344, -0.5, -0.1875, 0.045
2345, -0.4375, -0.1875, 0.045
2346, -0.375, -0.1875, 0.045
2347, -0.3125, -0.1875, 0.045
2348, -0.25, -0.1875, 0.045
2349, -0.1875, -0.1875, 0.045
2350, -0.125, -0.1875, 0.045
2351, -0.0625, -0.1875, 0.045
2352, 0, -0.1875, 0.045
2353, 0.0625, -0.1875, 0.045
2354, 0.125, -0.1875, 0.045
2355, 0.1875, -0.1875, 0.045
2356, 0.25, -0.1875, 0.045
2357, 0.3125, -0.1875, 0.045
2358, 0.375, -0.1875, 0.045
2359, 0.4375, -0.1875, 0.045
2360, 0.5, -0.1875, 0.045
2361, 0.5625, -0.1875, 0.045
2362, 0.625, -0.1875, 0.045
2363, 0.6875, -0.1875, 0.045
2364, 0.75, -0.1875, 0.045
2365, 0.8125, -0.1875, 0.045
2366, 0.875, -0.1875, 0.045
2367, 0.9375, -0.1875, 0.045
2368, 1, -0.1875, 0.045
2369, 1.0625, -0.1875, 0.045
2370, 1.125, -0.1875, 0.045
2371, 1.1875, -0.1875, 0.045
2372, 1.25, -0.1875, 0.045
2373, 1.3125, -0.1875, 0.045
2374, 1.375, -0.1875, 0.045
2375, 1.4375, -0.1875, 0.045
2376, 1.5, -0.1875, 0.045
2377, -0.5, -0.125, 0.045
2378, -0.4375, -0.125, 0.045
2379, -0.375, -0.125, 0.045
2380, -0.3125, -0.125, 0.045
2381, -0.25, -0.125, 0.045
2382, -0.1875, -0.125, 0.045
2383, -0.125, -0.125, 0.045
2384, -0.0625, -0.125, 0.045
2385, 0, -0.125, 0.045
2386, 0.0625, -0.125, 0.045
2387, 0.125, -0.125, 0.045
2388, 0.1875, -0.125, 0.045
2389, 0.25, -0.125, 0.045
2390, 0.3125, -0.125, 0.045
2391, 0.375, -0.125, 0.045
2392, 0.4375, -0.125, 0.045
2393, 0.5, -0.125, 0.045
2394, 0.5625, -0.125, 0.045
2395, 0.625, -0.125, 0.045
2396, 0.6875, -0.125, 0.045
2397, 0.75, -0.125, 0.045
2398, 0.8125, -0.125, 0.045
2399, 0.875, -0.125, 0.045
2400, 0.9375, -0.125, 0.045
2401, 1, -0.125, 0.045
2402, 1.0625, -0.125, 0.045
2403, 1.125, -0.125, 0.045
2404, 1.1875, -0.125, 0.045
2405, 1.25, -0.125, 0.045
2406, 1.3125, -0.125, 0.045
2407, 1.375, -0.125, 0.045
2408, 1.4375, -0.125, 0.045
2409, 1.5, -0.125, 0.045
2410, -0.5, -0.0625, 0.045
2411, -0.4375, -0.0625, 0.045
2412, -0.375, -0.0625, 0.045
2413, -0.3125, -0.0625, 0.045
2414, -0.25, -0.0625, 0.045
2415, -0.1875, -0.0625, 0.045
2416, -0.125, -0.0625, 0.045
2417, -0.0625, -0.0625, 0.045
2418, 0, -0.0625, 0.045
2419, 0.0625, -0.0625, 0.045
2420, 0.125, -0.0625, 0.045
2421, 0.1875, -0.0625, 0.045
2422, 0.25, -0.0625, 0.045
2423, 0.3125, -0.0625, 0.045
2424, 0.375, -0.0625, 0.045
2425, 0.4375, -0.0625, 0.045
2426, 0.5, -0.0625, 0.045
2427, 0.5625, -0.0625, 0.045
2428, 0.625, -0.0625, 0.045
2429, 0.6875, -0.0625, 0.045
2430, 0.75, -0.0625, 0.045
2431, 0.8125, -0.0625, 0.045
2432, 0.875, -0.0625, 0.045
2433, 0.9375, -0.0625, 0.045
2434, 1, -0.0625, 0.045
2435, 1.0625, -0.0625, 0.045
2436, 1.125, -0.0625, 0.045
2437, 1.1875, -0.0625, 0.045
2438, 1.25, -0.0625, 0.045
2439, 1.3125, -0.0625, 0.045
2440, 1.375, -0.0625, 0.045
2441, 1.4375, -0.0625, 0.045
2442, 1.5, -0.0625, 0.045
2443, -0.5, 0, 0.045
2444, -0.4375, 0, 0.045
2445, -0.375, 0, 0.045
2446, -0.3125, 0, 0.045
2447, -0.25, 0, 0.045
2448, -0.1875, 0, 0.045
2449, -0.125, 0, 0.045
2450, -0.0625, 0, 0.045
2451, 0, 0, 0.045
2452, 0.0625, 0, 0.045
2453, 0.125, 0, 0.045
2454, 0.1875, 0, 0.045
2455, 0.25, 0, 0.045
2456, 0.3125, 0, 0.045
2457, 0.375, 0, 0.045
2458, 0.4375, 0, 0.045
2459, 0.5, 0, 0.045
2460, 0.5625, 0, 0.045
2461, 0.625, 0, 0.045
2462, 0.6875, 0, 0.045
2463, 0.75, 0, 0.045
2464, 0.8125, 0, 0.045
2465, 0.875, 0, 0.045
2466, 0.9375, 0, 0.045
2467, 1, 0, 0.045
2468, 1.0625, 0, 0.045
2469, 1.125, 0, 0.045
2470, 1.1875, 0, 0.045
2471, 1.25, 0, 0.045
2472, 1.3125, 0, 0.045
2473, 1.375, 0, 0.045
2474, 1.4375, 0, 0.045
2475, 1.5, 0, 0.045
2476, -0.5, 0.0625, 0.045
2477, -0.4375, 0.0625, 0.045
2478, -0.375, 0.0625, 0.045
2479, -0.3125, 0.0625, 0.045
2480, -0.25, 0.0625, 0.045
2481, -0.1875, 0.0625, 0.045
2482, -0.125, 0.0625, 0.045
2483, -0.0625, 0.0625, 0.045
2484, 0, 0.0625, 0.045
2485, 0.0625, 0.0625, 0.045
2486, 0.125, 0.0625, 0.045
2487, 0.1875, 0.0625, 0.045
2488, 0.25, 0.0625, 0.045
2489, 0.3125, 0.0625, 0.045
2490, 0.375, 0.0625, 0.045
2491, 0.4375, 0.0625, 0.045
2492, 0.5, 0.0625, 0.045
2493, 0.5625, 0.0625, 0.045
2494, 0.625, 0.0625, 0.045
2495, 0.6875, 0.0625, 0.045
2496, 0.75, 0.0625, 0.045
2497, 0.8125, 0.0625, 0.045
2498, 0.875, 0.0625, 0.045
2499, 0.9375, 0.0625, 0.045
2500, 1, 0.0625, 0.045
2501, 1.0625, 0.0625, 0.045
2502, 1.125, 0.0625, 0.045
2503, 1.1875, 0.0625, 0.045
2504, 1.25, 0.0625, 0.045
2505, 1.3125, 0.0625, 0.045
2506, 1.375, 0.0625, 0.045
2507, 1.4375, 0.0625, 0.045
2508, 1.5, 0.0625, 0.045
2509, -0.5, 0.125, 0.045
2510, -0.4375, 0.125, 0.045
2511, -0.375, 0.125, 0.045
2512, -0.3125, 0.125, 0.045
2513, -0.25, 0.125, 0.045
2514, -0.1875, 0.125, 0.045
2515, -0.125, 0.125, 0.045
2516, -0.0625, 0.125, 0.045
2517, 0, 0.125, 0.045
2518, 0.0625, 0.125, 0.045
2519, 0.125, 0.125, 0.045
2520, 0.1875, 0.125, 0.045
2521, 0.25, 0.125, 0.045
2522, 0.3125, 0.125, 0.045
2523, 0.375, 0.125, 0.045
2524, 0.4375, 0.125, 0.045
2525, 0.5, 0.125, 0.045
2526, 0.5625, 0.125, 0.045
2527, 0.625, 0.125, 0.045
2528, 0.6875, 0.125, 0.045
2529, 0.75, 0.125, 0.045
2530, 0.8125, 0.125, 0.045
2531, 0.875, 0.125, 0.045
2532, 0.9375, 0.125, 0.045
2533, 1, 0.125, 0.045
2534, 1.0625, 0.125, 0.045
2535, 1.125, 0.125, 0.045
2536, 1.1875, 0.125, 0.045
2537, 1.25, 0.125, 0.045
2538, 1.3125, 0.125, 0.045
2539, 1.375, 0.125, 0.045
2540, 1.4375, 0.125, 0.045
2541, 1.5, 0.125, 0.045
2542, -0.5, 0.1875, 0.045
2543, -0.4375, 0.1875, 0.045
2544, -0.375, 0.1875, 0.045
2545, -0.3125, 0.1875, 0.045
2546, -0.25, 0.1875, 0.045
2547, -0.1875, 0.1875, 0.045
2548, -0.125, 0.1875, 0.045
2549, -0.0625, 0.1875, 0.045
2550, 0, 0.1875, 0.045
2551, 0.0625, 0.1875, 0.045
2552, 0.125, 0.1875, 0.045
2553, 0.1875, 0.1875, 0.045
2554, 0.25, 0.1875, 0.045
2555, 0.3125, 0.1875, 0.045
2556, 0.375, 0.1875, 0.045
2557, 0.4375, 0.1875, 0.045
2558, 0.5, 0.1875, 0.045
2559, 0.5625, 0.1875, 0.045
2560, 0.625, 0.1875, 0.045
2561, 0.6875, 0.1875, 0.045
2562, 0.75, 0.1875, 0.045
2563, 0.8125, 0.1875, 0.045
2564, 0.875, 0.1875, 0.045
2565, 0.9375, 0.1875, 0.045
2566, 1, 0.1875, 0.045
2567, 1.0625, 0.1875, 0.045
2568, 1.125, 0.1875, 0.045
2569, 1.1875, 0.1875, 0.045
2570, 1.25, 0.1875, 0.045
2571, 1.3125, 0.1875, 0.045
2572, 1.375, 0.1875, 0.045
2573, 1.4375, 0.1875, 0.045
2574, 1.5, 0.1875, 0.045
2575, -0.5, 0.25, 0.045
2576, -0.4375, 0.25, 0.045
2577, -0.375, 0.25, 0.045
2578, -0.3125, 0.25, 0.045
2579, -0.25, 0.25, 0.045
2580, -0.1875, 0.25, 0.045
2581, -0.125, 0.25, 0.045
2582, -0.0625, 0.25, 0.045
2583, 0, 0.25, 0.045
2584, 0.0625, 0.25, 0.045
2585, 0.125, 0.25, 0.045
2586, 0.1875, 0.25, 0.045
2587, 0.25, 0.25, 0.045
2588, 0.3125, 0.25, 0.045
2589, 0.375, 0.25, 0.045
2590, 0.4375, 0.25, 0.045
2591, 0.5, 0.25, 0.045
2592, 0.5625, 0.25, 0.045
2593, 0.625, 0.25, 0.045
2594, 0.6875, 0.25, 0.045
2595, 0.75, 0.25, 0.045
2596, 0.8125, 0.25, 0.045
2597, 0.875, 0.25, 0.045
2598, 0.9375, 0.25, 0.045
2599, 1, 0.25, 0.045
2600, 1.0625, 0.25, 0.045
2601, 1.125, 0.25, 0.045
2602, 1.1875, 0.25, 0.045
2603, 1.25, 0.25, 0.045
2604, 1.3125, 0.25, 0.045
2605, 1.375, 0.25, 0.045
2606, 1.4375, 0.25, 0.045
2607, 1.5, 0.25, 0.045
2608, -0.5, 0.3125, 0.045
2609, -0.4375, 0.3125, 0.045
2610, -0.375, 0.3125, 0.045
2611, -0.3125, 0.3125, 0.045
2612, -0.25, 0.3125, 0.045
2613, -0.1875, 0.3125, 0.045
2614, -0.125, 0.3125, 0.045
2615, -0.0625, 0.3125, 0.045
2616, 0, 0.3125, 0.045
2617, 0.0625, 0.3125, 0.045
2618, 0.125, 0.3125, 0.045
2619, 0.1875, 0.3125, 0.045
2620, 0.25, 0.3125, 0.045
2621, 0.3125, 0.3125, 0.045
2622, 0.375, 0.3125, 0.045
2623, 0.4375, 0.3125, 0.045
2624, 0.5, 0.3125, 0.045
2625, 0.5625, 0.3125, 0.045
2626, 0.625, 0.3125, 0.045
2627, 0.6875, 0.3125, 0.045
2628, 0.75, 0.3125, 0.045
2629, 0.8125, 0.3125, 0.045
2630, 0.875, 0.3125, 0.045
2631, 0.9375, 0.3125, 0.045
2632, 1, 0.3125, 0.045
2633, 1.0625, 0.3125, 0.045
2634, 1.125, 0.3125, 0.045
2635, 1.1875, 0.3125, 0.045
2636, 1.25, 0.3125, 0.045
2637, 1.3125, 0.3125, 0.045
2638, 1.375, 0.3125, 0.045
2639, 1.4375, 0.3125, 0.045
2640, 1.5, 0.3125, 0.045
2641, -0.5, 0.375, 0.045
2642, -0.4375, 0.375, 0.045
2643, -0.375, 0.375, 0.045
2644, -0.3125, 0.375, 0.045
2645, -0.25, 0.375, 0.045
2646, -0.1875, 0.375, 0.045
2647, -0.125, 0.375, 0.045
2648, -0.0625, 0.375, 0.045
2649, 0, 0.375, 0.045
2650, 0.0625, 0.375, 0.045
2651, 0.125, 0.375, 0.045
2652, 0.1875, 0.375, 0.045
2653, 0.25, 0.375, 0.045
2654, 0.3125, 0.375, 0.045
2655, 0.375, 0.375, 0.045
2656, 0.4375, 0.375, 0.045
2657, 0.5, 0.375, 0.045
2658, 0.5625, 0.375, 0.045
2659, 0.625, 0.375, 0.045
2660, 0.6875, 0.375, 0.045
2661, 0.75, 0.375, 0.045
2662, 0.8125, 0.375, 0.045
2663, 0.875, 0.375, 0.045
2664, 0.9375, 0.375, 0.045
2665, 1, 0.375, 0.045
2666, 1.0625, 0.375, 0.045
2667, 1.125, 0.375, 0.045
2668, 1.1875, 0.375, 0.045
2669, 1.25, 0.375, 0.045
2670, 1.3125, 0.375, 0.045
2671, 1.375, 0.375, 0.045
2672, 1.4375, 0.375, 0.045
2673, 1.5, 0.375, 0.045
2674, -0.5, 0.4375, 0.045
2675, -0.4375, 0.4375, 0.045
2676, -0.375, 0.4375, 0.045
2677, -0.3125, 0.4375, 0.045
2678, -0.25, 0.4375, 0.045
2679, -0.1875, 0.4375, 0.045
2680, -0.125, 0.4375, 0.045
2681, -0.0625, 0.4375, 0.045
2682, 0, 0.4375, 0.045
2683, 0.0625, 0.4375, 0.045
2684, 0.125, 0.4375, 0.045
2685, 0.1875, 0.4375, 0.045
2686, 0.25, 0.4375, 0.045
2687, 0.3125, 0.4375, 0.045
2688, 0.375, 0.4375, 0.045
2689, 0.4375, 0.4375, 0.045
2690, 0.5, 0.4375, 0.045
2691, 0.5625, 0.4375, 0.045
2692, 0.625, 0.4375, 0.045
2693, 0.6875, 0.4375, 0.045
2694, 0.75, 0.4375, 0.045
2695, 0.8125, 0.4375, 0.045
2696, 0.875, 0.4375, 0.045
2697, 0.9375, 0.4375, 0.045
2698, 1, 0.4375, 0.045
2699, 1.0625, 0.4375, 0.045
2700, 1.125, 0.4375, 0.045
2701, 1.1875, 0.4375, 0.045
2702, 1.25, 0.4375, 0.045
2703, 1.3125, 0.4375, 0.045
2704, 1.375, 0.4375, 0.045
2705, 1.4375, 0.4375, 0.045
2706, 1.5, 0.4375, 0.045
2707, -0.5, 0.5, 0.045
2708, -0.4375, 0.5, 0.045
2709, -0.375, 0.5, 0.045
2710, -0.3125, 0.5, 0.045
2711, -0.25, 0.5, 0.045
2712, -0.1875, 0.5, 0.045
2713, -0.125, 0.5, 0.045
2714, -0.0625, 0.5, 0.045
2715, 0, 0.5, 0.045
2716, 0.0625, 0.5, 0.045
2717, 0.125, 0.5, 0.045
2718, 0.1875, 0.5, 0.045
2719, 0.25, 0.5, 0.045
2720, 0.3125, 0.5, 0.045
2721, 0.375, 0.5, 0.045
2722, 0.4375, 0.5, 0.045
2723, 0.5, 0.5, 0.045
2724, 0.5625, 0.5, 0.045
2725, 0.625, 0.5, 0.045
2726, 0.6875, 0.5, 0.045
2727, 0.75, 0.5, 0.045
2728, 0.8125, 0.5, 0.045
2729, 0.875, 0.5, 0.045
2730, 0.9375, 0.5, 0.045
2731, 1, 0.5, 0.045
2732, 1.0625, 0.5, 0.045
2733, 1.125, 0.5, 0.045
2734, 1.1875, 0.5, 0.045
2735, 1.25, 0.5, 0.045
2736, 1.3125, 0.5, 0.045
2737, 1.375, 0.5, 0.045
2738, 1.4375, 0.5, 0.045
2739, 1.5, 0.5, 0.045
2740, -0.5, 0.5625, 0.045
2741, -0.4375, 0.5625, 0.045
2742, -0.375, 0.5625, 0.045
2743, -0.3125, 0.5625, 0.045
2744, -0.25, 0.5625, 0.045
2745, -0.1875, 0.5625, 0.045
2746, -0.125, 0.5625, 0.045
2747, -0.0625, 0.5625, 0.045
2748, 0, 0.5625, 0.045
2749, 0.0625, 0.5625, 0.045
2750, 0.125, 0.5625, 0.045
2751, 0.1875, 0.5625, 0.045
2752, 0.25, 0.5625, 0.045
2753, 0.3125, 0.5625, 0.045
2754, 0.375, 0.5625, 0.045
2755, 0.4375, 0.5625, 0.045
2756, 0.5, 0.5625, 0.045
2757, 0.5625, 0.5625, 0.045
2758, 0.625, 0.5625, 0.045
2759, 0.6875, 0.5625, 0.045
2760, 0.75, 0.5625, 0.045
2761, 0.8125, 0.5625, 0.045
2762, 0.875, 0.5625, 0.045
2763, 0.9375, 0.5625, 0.045
2764, 1, 0.5625, 0.045
2765, 1.0625, 0.5625, 0.045
2766, 1.125, 0.5625, 0.045
2767, 1.1875, 0.5625, 0.045
2768, 1.25, 0.5625, 0.045
2769, 1.3125, 0.5625, 0.045
2770, 1.375, 0.5625, 0.045
2771, 1.4375, 0.5625, 0.045
2772, 1.5, 0.5625, 0.045
2773, -0.5, 0.625, 0.045
2774, -0.4375, 0.625, 0.045
2775, -0.375, 0.625, 0.045
2776, -0.3125, 0.625, 0.045
2777, -0.25, 0.625, 0.045
2778, -0.1875, 0.625, 0.045
2779, -0.125, 0.625, 0.045
2780, -0.0625, 0.625, 0.045
2781, 0, 0.625, 0.045
2782, 0.0625, 0.625, 0.045
2783, 0.125, 0.625, 0.045
2784, 0.1875, 0.625, 0.045
2785, 0.25, 0.625, 0.045
2786, 0.3125, 0.625, 0.045
2787, 0.375, 0.625, 0.045
2788, 0.4375, 0.625, 0.045
2789, 0.5, 0.625, 0.045
2790, 0.5625, 0.625, 0.045
2791, 0.625, 0.625, 0.045
2792, 0.6875, 0.625, 0.045
2793, 0.75, 0.625, 0.045
2794, 0.8125, 0.625, 0.045
2795, 0.875, 0.625, 0.045
2796, 0.9375, 0.625, 0.045
2797, 1, 0.625, 0.045
2798, 1.0625, 0.625, 0.045
2799, 1.125, 0.625, 0.045
2800, 1.1875, 0.625, 0.045
2801, 1.25, 0.625, 0.045
2802, 1.3125, 0.625, 0.045
2803, 1.375, 0.625, 0.045
2804, 1.4375, 0.625, 0.045
2805, 1.5, 0.625, 0.045
2806, -0.5, 0.6875, 0.045
2807, -0.4375, 0.6875, 0.045
2808, -0.375, 0.6875, 0.045
2809, -0.3125, 0.6875, 0.045
2810, -0.25, 0.6875, 0.045
2811, -0.1875, 0.6875, 0.045
2812, -0.125, 0.6875, 0.045
2813, -0.0625, 0.6875, 0.045
2814, 0, 0.6875, 0.045
2815, 0.0625, 0.6875, 0.045
2816, 0.125, 0.6875, 0.045
2817, 0.1875, 0.6875, 0.045
2818, 0.25, 0.6875, 0.045
2819, 0.3125, 0.6875, 0.045
2820, 0.375, 0.6875, 0.045
2821, 0.4375, 0.6875, 0.045
2822, 0.5, 0.6875, 0.045
2823, 0.5625, 0.6875, 0.045
2824, 0.625, 0.6875, 0.045
2825, 0.6875, 0.6875, 0.045
2826, 0.75, 0.6875, 0.045
2827, 0.8125, 0.6875, 0.045
2828, 0.875, 0.6875, 0.045
2829, 0.9375, 0.6875, 0.045
2830, 1, 0.6875, 0.045
2831, 1.0625, 0.6875, 0.045
2832, 1.125, 0.6875, 0.045
2833, 1.1875, 0.6875, 0.045
2834, 1.25, 0.6875, 0.045
2835, 1.3125, 0.6875, 0.045
2836, 1.375, 0.6875, 0.045
2837, 1.4375, 0.6875, 0.045
2838, 1.5, 0.6875, 0.045
2839, -0.5, 0.75, 0.045
2840, -0.4375, 0.75, 0.045
2841, -0.375, 0.75, 0.045
2842, -0.3125, 0.75, 0.045
2843, -0.25, 0.75, 0.045
2844, -0.1875, 0.75, 0.045
2845, -0.125, 0.75, 0.045
2846, -0.0625, 0.75, 0.045
2847, 0, 0.75, 0.045
2848, 0.0625, 0.75, 0.045
2849, 0.125, 0.75, 0.045
2850, 0.1875, 0.75, 0.045
2851, 0.25, 0.75, 0.045
2852, 0.3125, 0.75, 0.045
2853, 0.375, 0.75, 0.045
2854, 0.4375, 0.75, 0.045
2855, 0.5, 0.75, 0.045
2856, 0.5625, 0.75, 0.045
2857, 0.625, 0.75, 0.045
2858, 0.6875, 0.75, 0.045
2859, 0.75, 0.75, 0.045
2860, 0.8125, 0.75, 0.045
2861, 0.875, 0.75, 0.045
2862, 0.9375, 0.75, 0.045
2863, 1, 0.75, 0.045
2864, 1.0625, 0.75, 0.045
2865, 1.125, 0.75, 0.045
2866, 1.1875, 0.75, 0.045
2867, 1.25, 0.75, 0.045
2868, 1.3125, 0.75, 0.045
2869, 1.375, 0.75, 0.045
2870, 1.4375, 0.75, 0.045
2871, 1.5, 0.75, 0.045
2872, -0.5, 0.8125, 0.045
2873, -0.4375, 0.8125, 0.045
2874, -0.375, 0.8125, 0.045
2875, -0.3125, 0.8125, 0.045
2876, -0.25, 0.8125, 0.045
2877, -0.1875, 0.8125, 0.045
2878, -0.125, 0.8125, 0.045
2879, -0.0625, 0.8125, 0.045
2880, 0, 0.8125, 0.045
2881, 0.0625, 0.8125, 0.045
2882, 0.125, 0.8125, 0.045
2883, 0.1875, 0.8125, 0.045
2884, 0.25, 0.8125, 0.045
2885, 0.3125, 0.8125, 0.045
2886, 0.375, 0.8125, 0.045
2887, 0.4375, 0.8125, 0.045
2888, 0.5, 0.8125, 0.045
2889, 0.5625, 0.8125, 0.045
2890, 0.625, 0.8125, 0.045
2891, 0.6875, 0.8125, 0.045
2892, 0.75, 0.8125, 0.045
2893, 0.8125, 0.8125, 0.045
2894, 0.875, 0.8125, 0.045
2895, 0.9375, 0.8125, 0.045
2896, 1, 0.8125, 0.045
2897, 1.0625, 0.8125, 0.045
2898, 1.125, 0.8125, 0.045
2899, 1.1875, 0.8125, 0.045
2900, 1.25, 0.8125, 0.045
2901, 1.3125, 0.8125, 0.045
2902, 1.375, 0.8125, 0.045
2903, 1.4375, 0.8125, 0.045
2904, 1.5, 0.8125, 0.045
2905, -0.5, 0.875, 0.045
2906, -0.4375, 0.875, 0.045
2907, -0.375, 0.875, 0.045
2908, -0.3125, 0.875, 0.045
2909, -0.25, 0.875, 0.045
2910, -0.1875, 0.875, 0.045
2911, -0.125, 0.875, 0.045
2912, -0.0625, 0.875, 0.045
2913, 0, 0.875, 0.045
2914, 0.0625, 0.875, 0.045
2915, 0.125, 0.875, 0.045
2916, 0.1875, 0.875, 0.045
2917, 0.25, 0.875, 0.045
2918, 0.3125, 0.875, 0.045
2919, 0.375, 0.875, 0.045
2920, 0.4375, 0.875, 0.045
2921, 0.5, 0.875, 0.045
2922, 0.5625, 0.875, 0.045
2923, 0.625, 0.875, 0.045
2924, 0.6875, 0.875, 0.045
2925, 0.75, 0.875, 0.045
2926, 0.8125, 0.875, 0.045
2927, 0.875, 0.875, 0.045
2928, 0.9375, 0.875, 0.045
2929, 1, 0.875, 0.045
2930, 1.0625, 0.875, 0.045
2931, 1.125, 0.875, 0.045
2932, 1.1875, 0.875, 0.045
2933, 1.25, 0.875, 0.045
2934, 1.3125, 0.875, 0.045
2935, 1.375, 0.875, 0.045
2936, 1.4375, 0.875, 0.045
2937, 1.5, 0.875, 0.045
2938, -0.5, 0.9375, 0.045
2939, -0.4375, 0.9375, 0.045
2940, -0.375, 0.9375, 0.045
2941, -0.3125, 0.9375, 0.045
2942, -0.25, 0.9375, 0.045
2943, -0.1875, 0.9375, 0.045
2944, -0.125, 0.9375, 0.045
2945, -0.0625, 0.9375, 0.045
2946, 0, 0.9375, 0.045
2947, 0.0625, 0.9375, 0.045
2948, 0.125, 0.9375, 0.045
2949, 0.1875, 0.9375, 0.045
2950, 0.25, 0.9375, 0.045
2951, 0.3125, 0.9375, 0.045
2952, 0.375, 0.9375, 0.045
2953, 0.4375, 0.9375, 0.045
2954, 0.5, 0.9375, 0.045
2955, 0.5625, 0.9375, 0.045
2956, 0.625, 0.9375, 0.045
2957, 0.6875, 0.9375, 0.045
2958, 0.75, 0.9375, 0.045
2959, 0.8125, 0.9375, 0.045
2960, 0.875, 0.9375, 0.045
2961, 0.9375, 0.9375, 0.045
2962, 1, 0.9375, 0.045
2963, 1.0625, 0.9375, 0.045
2964, 1.125, 0.9375, 0.045
2965, 1.1875, 0.9375, 0.045
2966, 1.25, 0.9375, 0.045
2967, 1.3125, 0.9375, 0.045
2968, 1.375, 0.9375, 0.045
2969, 1.4375, 0.9375, 0.045
2970, 1.5, 0.9375, 0.045
2971, -0.5, 1, 0.045
2972, -0.4375, 1, 0.045
2973, -0.375, 1, 0.045
2974, -0.3125, 1, 0.045
2975, -0.25, 1, 0.045
2976, -0.1875, 1, 0.045
2977, -0.125, 1, 0.045
2978, -0.0625, 1, 0.045
2979, 0, 1, 0.045
2980, 0.0625, 1, 0.045
2981, 0.125, 1, 0.045
2982, 0.1875, 1, 0.045
2983, 0.25, 1, 0.045
2984, 0.3125, 1, 0.045
2985, 0.375, 1, 0.045
2986, 0.4375, 1, 0.045
2987, 0.5, 1, 0.045
2988, 0.5625, 1, 0.045
2989, 0.625, 1, 0.045
2990, 0.6875, 1, 0.045
2991, 0.75, 1, 0.045
2992, 0.8125, 1, 0.045
2993, 0.875, 1, 0.045
2994, 0.9375, 1, 0.045
2995, 1, 1, 0.045
2996, 1.0625, 1, 0.045
2997, 1.125, 1, 0.045
2998, 1.1875, 1, 0.045
2999, 1.25, 1, 0.045
3000, 1.3125, 1, 0.045
3001, 1.375, 1, 0.045
3002, 1.4375, 1, 0.045
3003, 1.5, 1, 0.045
3004, -0.5, 1.0625, 0.045
3005, -0.4375, 1.0625, 0.045
3006, -0.375, 1.0625, 0.045
3007, -0.3125, 1.0625, 0.045
3008, -0.25, 1.0625, 0.045
3009, -0.1875, 1.0625, 0.045
3010, -0.125, 1.0625, 0.045
3011, -0.0625, 1.0625, 0.045
3012, 0, 1.0625, 0.045
3013, 0.0625, 1.0625, 0.045
3014, 0.125, 1.0625, 0.045
3015, 0.1875, 1.0625, 0.045
3016, 0.25, 1.0625, 0.045
3017, 0.3125, 1.0625, 0.045
3018, 0.375, 1.0625, 0.045
3019, 0.4375, 1.0625, 0.045
3020, 0.5, 1.0625, 0.045
3021, 0.5625, 1.0625, 0.045
3022, 0.625, 1.0625, 0.045
3023, 0.6875, 1.0625, 0.045
3024, 0.75, 1.0625, 0.045
3025, 0.8125, 1.0625, 0.045
3026, 0.875, 1.0625, 0.045
3027, 0.9375, 1.0625, 0.045
3028, 1, 1.0625, 0.045
3029, 1.0625, 1.0625, 0.045
3030, 1.125, 1.0625, 0.045
3031, 1.1875, 1.0625, 0.045
3032, 1.25, 1.0625, 0.045
3033, 1.3125, 1.0625, 0.045
3034, 1.375, 1.0625, 0.045
3035, 1.4375, 1.0625, 0.045
3036, 1.5, 1.0625, 0.045
3037, -0.5, 1.125, 0.045
3038, -0.4375, 1.125, 0.045
3039, -0.375, 1.125, 0.045
3040, -0.3125, 1.125, 0.045
3041, -0.25, 1.125, 0.045
3042, -0.1875, 1.125, 0.045
3043, -0.125, 1.125, 0.045
3044, -0.0625, 1.125, 0.045
3045, 0, 1.125, 0.045
3046, 0.0625, 1.125, 0.045
3047, 0.125, 1.125, 0.045
3048, 0.1875, 1.125, 0.045
3049, 0.25, 1.125, 0.045
3050, 0.3125, 1.125, 0.045
3051, 0.375, 1.125, 0.045
3052, 0.4375, 1.125, 0.045
3053, 0.5, 1.125, 0.045
3054, 0.5625, 1.125, 0.045
3055, 0.625, 1.125, 0.045
3056, 0.6875, 1.125, 0.045
3057, 0.75, 1.125, 0.045
3058, 0.8125, 1.125, 0.045
3059, 0.875, 1.125, 0.045
3060, 0.9375, 1.125, 0.045
3061, 1, 1.125, 0.045
3062, 1.0625, 1.125, 0.045
3063, 1.125, 1.125, 0.045
3064, 1.1875, 1.125, 0.045
3065, 1.25, 1.125, 0.045
3066, 1.3125, 1.125, 0.045
3067, 1.375, 1.125, 0.045
3068, 1.4375, 1.125, 0.045
3069, 1.5, 1.125, 0.045
3070, -0.5, 1.1875, 0.045
3071, -0.4375, 1.1875, 0.045
3072, -0.375, 1.1875, 0.045
3073, -0.3125, 1.1875, 0.045
3074, -0.25, 1.1875, 0.045
3075, -0.1875, 1.1875, 0.045
3076, -0.125, 1.1875, 0.045
3077, -0.0625, 1.1875, 0.045
3078, 0, 1.1875, 0.045
3079, 0.0625, 1.1875, 0.045
3080, 0.125, 1.1875, 0.045
3081, 0.1875, 1.1875, 0.045
3082, 0.25, 1.1875, 0.045
3083, 0.3125, 1.1875, 0.045
3084, 0.375, 1.1875, 0.045
3085, 0.4375, 1.1875, 0.045
3086, 0.5, 1.1875, 0.045
3087, 0.5625, 1.1875, 0.045
3088, 0.625, 1.1875, 0.045
3089, 0.6875, 1.1875, 0.045
3090, 0.75, 1.1875, 0.045
3091, 0.8125, 1.1875, 0.045
3092, 0.875, 1.1875, 0.045
3093, 0.9375, 1.1875, 0.045
3094, 1, 1.1875, 0.045
3095, 1.0625, 1.1875, 0.045
3096, 1.125, 1.1875, 0.045
3097, 1.1875, 1.1875, 0.045
3098, 1.25, 1.1875, 0.045
3099, 1.3125, 1.1875, 0.045
3100, 1.375, 1.1875, 0.045
3101, 1.4375, 1.1875, 0.045
3102, 1.5, 1.1875, 0.045
3103, -0.5, 1.25, 0.045
3104, -0.4375, 1.25, 0.045
3105, -0.375, 1.25, 0.045
3106, -0.3125, 1.25, 0.045
3107, -0.25, 1.25, 0.045
3108, -0.1875, 1.25, 0.045
3109, -0.125, 1.25, 0.045
3110, -0.0625, 1.25, 0.045
3111, 0, 1.25, 0.045
3112, 0.0625, 1.25, 0.045
3113, 0.125, 1.25, 0.045
3114, 0.1875, 1.25, 0.045
3115, 0.25, 1.25, 0.045
3116, 0.3125, 1.25, 0.045
3117, 0.375, 1.25, 0.045
3118, 0.4375, 1.25, 0.045
3119, 0.5, 1.25, 0.045
3120, 0.5625, 1.25, 0.045
3121, 0.625, 1.25, 0.045
3122, 0.6875, 1.25, 0.045
3123, 0.75, 1.25, 0.045
3124, 0.8125, 1.25, 0.045
3125, 0.875, 1.25, 0.045
3126, 0.9375, 1.25, 0.045
3127, 1, 1.25, 0.045
3128, 1.0625, 1.25, 0.045
3129, 1.125, 1.25, 0.045
3130, 1.1875, 1.25, 0.045
3131, 1.25, 1.25, 0.045
3132, 1.3125, 1.25, 0.045
3133, 1.375, 1.25, 0.045
3134, 1.4375, 1.25, 0.045
3135, 1.5, 1.25, 0.045
3136, -0.5, 1.3125, 0.045
3137, -0.4375, 1.3125, 0.045
3138, -0.375, 1.3125, 0.045
3139, -0.3125, 1.3125, 0.045
3140, -0.25, 1.3125, 0.045
3141, -0.1875, 1.3125, 0.045
3142, -0.125, 1.3125, 0.045
3143, -0.0625, 1.3125, 0.045
3144, 0, 1.3125, 0.045
3145, 0.0625, 1.3125, 0.045
3146, 0.125, 1.3125, 0.045
3147, 0.1875, 1.3125, 0.045
3148, 0.25, 1.3125, 0.045
3149, 0.3125, 1.3125, 0.045
3150, 0.375, 1.3125, 0.045
3151, 0.4375, 1.3125, 0.045
3152, 0.5, 1.3125, 0.045
3153, 0.5625, 1.3125, 0.045
3154, 0.625, 1.3125, 0.045
3155, 0.6875, 1.3125, 0.045
3156, 0.75, 1.3125, 0.045
3157, 0.8125, 1.3125, 0.045
3158, 0.875, 1.3125, 0.045
3159, 0.9375, 1.3125, 0.045
3160, 1, 1.3125, 0.045
3161, 1.0625, 1.3125, 0.045
3162, 1.125, 1.3125, 0.045
3163, 1.1875, 1.3125, 0.045
3164, 1.25, 1.3125, 0.045
3165, 1.3125, 1.3125, 0.045
3166, 1.375, 1.3125, 0.045
3167, 1.4375, 1.3125, 0.045
3168, 1.5, 1.3125, 0.045
3169, -0.5, 1.375, 0.045
3170, -0.4375, 1.375, 0.045
3171, -0.375, 1.375, 0.045
3172, -0.3125, 1.375, 0.045
3173, -0.25, 1.375, 0.045
3174, -0.1875, 1.375, 0.045
3175, -0.125, 1.375, 0.045
3176, -0.0625, 1.375, 0.045
3177, 0, 1.375, 0.045
3178, 0.0625, 1.375, 0.045
3179, 0.125, 1.375, 0.045
3180, 0.1875, 1.375, 0.045
3181, 0.25, 1.375, 0.045
3182, 0.3125, 1.375, 0.045
3183, 0.375, 1.375, 0.045
3184, 0.4375, 1.375, 0.045
3185, 0.5, 1.375, 0.045
3186, 0.5625, 1.375, 0.045
3187, 0.625, 1.375, 0.045
3188, 0.6875, 1.375, 0.045
3189, 0.75, 1.375, 0.045
3190, 0.8125, 1.375, 0.045
3191, 0.875, 1.375, 0.045
3192, 0.9375, 1.375, 0.045
3193, 1, 1.375, 0.045
3194, 1.0625, 1.375, 0.045
3195, 1.125, 1.375, 0.045
3196, 1.1875, 1.375, 0.045
3197, 1.25, 1.375, 0.045
3198, 1.3125, 1.375, 0.045
3199, 1.375, 1.375, 0.045
3200, 1.4375, 1.375, 0.045
3201, 1.5, 1.375, 0.045
3202, -0.5, 1.4375, 0.045
3203, -0.4375, 1.4375, 0.045
3204, -0.375, 1.4375, 0.045
3205, -0.3125, 1.4375, 0.045
3206, -0.25, 1.4375, 0.045
3207, -0.1875, 1.4375, 0.045
3208, -0.125, 1.4375, 0.045
3209, -0.0625, 1.4375, 0.045
3210, 0, 1.4375, 0.045
3211, 0.0625, 1.4375, 0.045
3212, 0.125, 1.4375, 0.045
3213, 0.1875, 1.4375, 0.045
3214, 0.25, 1.4375, 0.045
3215, 0.3125, 1.4375, 0.045
3216, 0.375, 1.4375, 0.045
3217, 0.4375, 1.4375, 0.045
3218, 0.5, 1.4375, 0.045
3219, 0.5625, 1.4375, 0.045
3220, 0.625, 1.4375, 0.045
3221, 0.6875, 1.4375, 0.045
3222, 0.75, 1.4375, 0.045
3223, 0.8125, 1.4375, 0.045
3224, 0.875, 1.4375, 0.045
3225, 0.9375, 1.4375, 0.045
3226, 1, 1.4375, 0.045
3227, 1.0625, 1.4375, 0.045
3228, 1.125, 1.4375, 0.045
3229, 1.1875, 1.4375, 0.045
3230, 1.25, 1.4375, 0.045
3231, 1.3125, 1.4375, 0.045
3232, 1.375, 1.4375, 0.045
3233, 1.4375, 1.4375, 0.045
3234, 1.5, 1.4375, 0.045
3235, -0.5, 1.5, 0.045
3236, -0.4375, 1.5, 0.045
3237, -0.375, 1.5, 0.045
3238, -0.3125, 1.5, 0.045
3239, -0.25, 1.5, 0.045
3240, -0.1875, 1.5, 0.045
3241, -0.125, 1.5, 0.045
3242, -0.0625, 1.5, 0.045
3243, 0, 1.5, 0.045
3244, 0.0625, 1.5, 0.045
3245, 0.125, 1.5, 0.045
3246, 0.1875, 1.5, 0.045
3247, 0.25, 1.5, 0.045
3248, 0.3125, 1.5, 0.045
3249, 0.375, 1.5, 0.045
3250, 0.4375, 1.5, 0.045
3251, 0.5, 1.5, 0.045
3252, 0.5625, 1.5, 0.045
3253, 0.625, 1.5, 0.045
3254, 0.6875, 1.5, 0.045
3255, 0.75, 1.5, 0.045
3256, 0.8125, 1.5, 0.045
3257, 0.875, 1.5, 0.045
3258, 0.9375, 1.5, 0.045
3259, 1, 1.5, 0.045
3260, 1.0625, 1.5, 0.045
3261, 1.125, 1.5, 0.045
3262, 1.1875, 1.5, 0.045
3263, 1.25, 1.5, 0.045
3264, 1.3125, 1.5, 0.045
3265, 1.375, 1.5, 0.045
3266, 1.4375, 1.5, 0.045
3267, 1.5, 1.5, 0.045
3268, -0.5, -0.5, 0.0725
3269, -0.4375, -0.5, 0.0725
3270, -0.375, -0.5, 0.0725
3271, -0.3125, -0.5, 0.0725
3272, -0.25, -0.5, 0.0725
3273, -0.1875, -0.5, 0.0725
3274, -0.125, -0.5, 0.0725
3275, -0.0625, -0.5, 0.0725
3276, 0, -0.5, 0.0725
3277, 0.0625, -0.5, 0.0725
3278, 0.125, -0.5, 0.0725
3279, 0.1875, -0.5, 0.0725
3280, 0.25, -0.5, 0.0725
3281, 0.3125, -0.5, 0.0725
3282, 0.375, -0.5, 0.0725
3283, 0.4375, -0.5, 0.0725
3284, 0.5, -0.5, 0.0725
3285, 0.5625, -0.5, 0.0725
3286, 0.625, -0.5, 0.0725
3287, 0.6875, -0.5, 0.0725
3288, 0.75, -0.5, 0.0725
3289, 0.8125, -0.5, 0.0725
3290, 0.875, -0.5, 0.0725
3291, 0.9375, -0.5, 0.0725
3292, 1, -0.5, 0.0725
3293, 1.0625, -0.5, 0.0725
3294, 1.125, -0.5, 0.0725
3295, 1.1875, -0.5, 0.0725
3296, 1.25, -0.5, 0.0725
3297, 1.3125, -0.5, 0.0725
3298, 1.375, -0.5, 0.0725
3299, 1.4375, -0.5, 0.0725
3300, 1.5, -0.5, 0.0725
3301, -0.5, -0.4375, 0.0725
3302, -0.4375, -0.4375, 0.0725
3303, -0.375, -0.4375, 0.0725
3304, -0.3125, -0.4375, 0.0725
3305, -0.25, -0.4375, 0.0725
3306, -0.1875, -0.4375, 0.0725
3307, -0.125, -0.4375, 0.0725
3308, -0.0625, -0.4375, 0.0725
3309, 0, -0.4375, 0.0725
3310, 0.0625, -0.4375, 0.0725
3311, 0.125, -0.4375, 0.0725
3312, 0.1875, -0.4375, 0.0725
3313, 0.25, -0.4375, 0.0725
3314, 0.3125, -0.4375, 0.0725
3315, 0.375, -0.4375, 0.0725
3316, 0.4375, -0.4375, 0.0725
3317, 0.5, -0.4375, 0.0725
3318, 0.5625, -0.4375, 0.0725
3319, 0.625, -0.4375, 0.0725
3320, 0.6875, -0.4375, 0.0725
3321, 0.75, -0.4375, 0.0725
3322, 0.8125, -0.4375, 0.0725
3323, 0.875, -0.4375, 0.0725
3324, 0.9375, -0.4375, 0.0725
3325, 1, -0.4375, 0.0725
3326, 1.0625, -0.4375, 0.0725
3327, 1.125, -0.4375, 0.0725
3328, 1.1875, -0.4375, 0.0725
3329, 1.25, -0.4375, 0.0725
3330, 1.3125, -0.4375, 0.0725
3331, 1.375, -0.4375, 0.0725
3332, 1.4375, -0.4375, 0.0725
3333, 1.5, -0.4375, 0.0725
3334, -0.5, -0.375, 0.0725
3335, -0.4375, -0.375, 0.0725
3336, -0.375, -0.375, 0.0725
3337, -0.3125, -0.375, 0.0725
3338, -0.25, -0.375, 0.0725
3339, -0.1875, -0.375, 0.0725
3340, -0.125, -0.375, 0.0725
3341, -0.0625, -0.375, 0.0725
3342, 0, -0.375, 0.0725
3343, 0.0625, -0.375, 0.0725
3344, 0.125, -0.375, 0.0725
3345, 0.1875, -0.375, 0.0725
3346, 0.25, -0.375, 0.0725
3347, 0.3125, -0.375, 0.0725
3348, 0.375, -0.375, 0.0725
3349, 0.4375, -0.375, 0.0725
3350, 0.5, -0.375, 0.0725
3351, 0.5625, -0.375, 0.0725
3352, 0.625, -0.375, 0.0725
3353, 0.6875, -0.375, 0.0725
3354, 0.75, -0.375, 0.0725
3355, 0.8125, -0.375, 0.0725
3356, 0.875, -0.375, 0.0725
3357, 0.9375, -0.375, 0.0725
3358, 1, -0.375, 0.0725
3359, 1.0625, -0.375, 0.0725
3360, 1.125, -0.375, 0.0725
3361, 1.1875, -0.375, 0.0725
3362, 1.25, -0.375, 0.0725
3363, 1.3125, -0.375, 0.0725
3364, 1.375, -0.375, 0.0725
3365, 1.4375, -0.375, 0.0725
3366, 1.5, -0.375, 0.0725
3367, -0.5, -0.3125, 0.0725
3368, -0.4375, -0.3125, 0.0725
3369, -0.375, -0.3125, 0.0725
3370, -0.3125, -0.3125, 0.0725
3371, -0.25, -0.3125, 0.0725
3372, -0.1875, -0.3125, 0.0725
3373, -0.125, -0.3125, 0.0725
3374, -0.0625, -0.3125, 0.0725
3375, 0, -0.3125, 0.0725
3376, 0.0625, -0.3125, 0.0725
3377, 0.125, -0.3125, 0.0725
3378, 0.1875, -0.3125, 0.0725
3379, 0.25, -0.3125, 0.0725
3380, 0.3125, -0.3125, 0.0725
3381, 0.375, -0.3125, 0.0725
3382, 0.4375, -0.3125, 0.0725
3383, 0.5, -0.3125, 0.0725
3384, 0.5625, -0.3125, 0.0725
3385, 0.625, -0.3125, 0.0725
3386, 0.6875, -0.3125, 0.0725
3387, 0.75, -0.3125, 0.0725
3388, 0.8125, -0.3125, 0.0725
3389, 0.875, -0.3125, 0.0725
3390, 0.9375, -0.3125, 0.0725
3391, 1, -0.3125, 0.0725
3392, 1.0625, -0.3125, 0.0725
3393, 1.125, -0.3125, 0.0725
3394, 1.1875, -0.3125, 0.0725
3395, 1.25, -0.3125, 0.0725
3396, 1.3125, -0.3125, 0.0725
3397, 1.375, -0.3125, 0.0725
3398, 1.4375, -0.3125, 0.0725
3399, 1.5, -0.3125, 0.0725
3400, -0.5, -0.25, 0.0725
3401, -0.4375, -0.25, 0.0725
3402, -0.375, -0.25, 0.0725
3403, -0.3125, -0.25, 0.0725
3404, -0.25, -0.25, 0.0725
3405, -0.1875, -0.25, 0.0725
3406, -0.125, -0.25, 0.0725
3407, -0.0625, -0.25, 0.0725
3408, 0, -0.25, 0.0725
3409, 0.0625, -0.25, 0.0725
3410, 0.125, -0.25, 0.0725
3411, 0.1875, -0.25, 0.0725
3412, 0.25, -0.25, 0.0725
3413, 0.3125, -0.25, 0.0725
3414, 0.375, -0.25, 0.0725
3415, 0.4375, -0.25, 0.0725
3416, 0.5, -0.25, 0.0725
3417, 0.5625, -0.25, 0.0725
3418, 0.625, -0.25, 0.0725
3419, 0.6875, -0.25, 0.0725
3420, 0.75, -0.25, 0.0725
3421, 0.8125, -0.25, 0.0725
3422, 0.875, -0.25, 0.0725
3423, 0.9375, -0.25, 0.0725
3424, 1, -0.25, 0.0725
3425, 1.0625, -0.25, 0.0725
3426, 1.125, -0.25, 0.0725
3427, 1.1875, -0.25, 0.0725
3428, 1.25, -0.25, 0.0725
3429, 1.3125, -0.25, 0.0725
3430, 1.375, -0.25, 0.0725
3431, 1.4375, -0.25, 0.0725
3432, 1.5, -0.25, 0.0725
3433, -0.5, -0.1875, 0.0725
3434, -0.4375, -0.1875, 0.0725
3435, -0.375, -0.1875, 0.0725
3436, -0.3125, -0.1875, 0.0725
3437, -0.25, -0.1875, 0.0725
3438, -0.1875, -0.1875, 0.0725
3439, -0.125, -0.1875, 0.0725
3440, -0.0625, -0.1875, 0.0725
3441, 0, -0.1875, 0.0725
3442, 0.0625, -0.1875, 0.0725
3443, 0.125, -0.1875, 0.0725
3444, 0.1875, -0.1875, 0.0725
3445, 0.25, -0.1875, 0.0725
3446, 0.3125, -0.1875, 0.0725
3447, 0.375, -0.1875, 0.0725
3448, 0.4375, -0.1875, 0.0725
3449, 0.5, -0.1875, 0.0725
3450, 0.5625, -0.1875, 0.0725
3451, 0.625, -0.1875, 0.0725
3452, 0.6875, -0.1875, 0.0725
3453, 0.75, -0.1875, 0.0725
3454, 0.8125, -0.1875, 0.0725
3455, 0.875, -0.1875, 0.0725
3456, 0.9375, -0.1875, 0.0725
3457, 1, -0.1875, 0.0725
3458, 1.0625, -0.1875, 0.0725
3459, 1.125, -0.1875, 0.0725
3460, 1.1875, -0.1875, 0.0725
3461, 1.25, -0.1875, 0.0725
3462, 1.3125, -0.1875, 0.0725
3463, 1.375, -0.1875, 0.0725
3464, 1.4375, -0.1875, 0.0725
3465, 1.5, -0.1875, 0.0725
3466, -0.5, -0.125, 0.0725
3467, -0.4375, -0.125, 0.0725
3468, -0.375, -0.125, 0.0725
3469, -0.3125, -0.125, 0.0725
3470, -0.25, -0.125, 0.0725
3471, -0.1875, -0.125, 0.0725
3472, -0.125, -0.125, 0.0725
3473, -0.0625, -0.125, 0.0725
3474, 0, -0.125, 0.0725
3475, 0.0625, -0.125, 0.0725
3476, 0.125, -0.125, 0.0725
3477, 0.1875, -0.125, 0.0725
3478, 0.25, -0.125, 0.0725
3479, 0.3125, -0.125, 0.0725
3480, 0.375, -0.125, 0.0725
3481, 0.4375, -0.125, 0.0725
3482, 0.5, -0.125, 0.0725
3483, 0.5625, -0.125, 0.0725
3484, 0.625, -0.125, 0.0725
3485, 0.6875, -0.125, 0.0725
3486, 0.75, -0.125, 0.0725
3487, 0.8125, -0.125, 0.0725
3488, 0.875, -0.125, 0.0725
3489, 0.9375, -0.125, 0.0725
3490, 1, -0.125, 0.0725
3491, 1.0625, -0.125, 0.0725
3492, 1.125, -0.125, 0.0725
3493, 1.1875, -0.125, 0.0725
3494, 1.25, -0.125, 0.0725
3495, 1.3125, -0.125, 0.0725
3496, 1.375, -0.125, 0.0725
3497, 1.4375, -0.125, 0.0725
3498, 1.5, -0.125, 0.0725
3499, -0.5, -0.0625, 0.0725
3500, -0.4375, -0.0625, 0.0725
3501, -0.375, -0.0625, 0.0725
3502, -0.3125, -0.0625, 0.0725
3503, -0.25, -0.0625, 0.0725
3504, -0.1875, -0.0625, 0.0725
3505, -0.125, -0.0625, 0.0725
3506, -0.0625, -0.0625, 0.0725
3507, 0, -0.0625, 0.0725
3508, 0.0625, -0.0625, 0.0725
3509, 0.125, -0.0625, 0.0725
3510, 0.1875, -0.0625, 0.0725
3511, 0.25, -0.0625, 0.0725
3512, 0.3125, -0.0625, 0.0725
3513, 0.375, -0.0625, 0.0725
3514, 0.4375, -0.0625, 0.0725
3515, 0.5, -0.0625, 0.0725
3516, 0.5625, -0.0625, 0.0725
3517, 0.625, -0.0625, 0.0725
3518, 0.6875, -0.0625, 0.0725
3519, 0.75, -0.0625, 0.0725
3520, 0.8125, -0.0625, 0.0725
3521, 0.875, -0.0625, 0.0725
3522, 0.9375, -0.0625, 0.0725
3523, 1, -0.0625, 0.0725
3524, 1.0625, -0.0625, 0.0725
3525, 1.125, -0.0625, 0.0725
3526, 1.1875, -0.0625, 0.0725
3527, 1.25, -0.0625, 0.0725
3528, 1.3125, -0.0625, 0.0725
3529, 1.375, -0.0625, 0.0725
3530, 1.4375, -0.0625, 0.0725
3531, 1.5, -0.0625, 0.0725
3532, -0.5, 0, 0.0725
3533, -0.4375, 0, 0.0725
3534, -0.375, 0, 0.0725
3535, -0.3125, 0, 0.0725
3536, -0.25, 0, 0.0725
3537, -0.1875, 0, 0.0725
3538, -0.125, 0, 0.0725
3539, -0.0625, 0, 0.0725
3540, 0, 0, 0.0725
3541, 0.0625, 0, 0.0725
3542, 0.125, 0, 0.0725
3543, 0.1875, 0, 0.0725
3544, 0.25, 0, 0.0725
3545, 0.3125, 0, 0.0725
3546, 0.375, 0, 0.0725
3547, 0.4375, 0, 0.0725
3548, 0.5, 0, 0.0725
3549, 0.5625, 0, 0.0725
3550, 0.625, 0, 0.0725
3551, 0.6875, 0, 0.0725
3552, 0.75, 0, 0.0725
3553, 0.8125, 0, 0.0725
3554, 0.875, 0, 0.0725
3555, 0.9375, 0, 0.0725
3556, 1, 0, 0.0725
3557, 1.0625, 0, 0.0725
3558, 1.125, 0, 0.0725
3559, 1.1875, 0, 0.0725
3560, 1.25, 0, 0.0725
3561, 1.3125, 0, 0.0725
3562, 1.375, 0, 0.0725
3563, 1.4375, 0, 0.0725
3564, 1.5, 0, 0.0725
3565, -0.5, 0.0625, 0.0725
3566, -0.4375, 0.0625, 0.0725
3567, -0.375, 0.0625, 0.0725
3568, -0.3125, 0.0625, 0.0725
3569, -0.25, 0.0625, 0.0725
3570, -0.1875, 0.0625, 0.0725
3571, -0.125, 0.0625, 0.0725
3572, -0.0625, 0.0625, 0.0725
3573, 0, 0.0625, 0.0725
3574, 0.0625, 0.0625, 0.0725
3575, 0.125, 0.0625, 0.0725
3576, 0.1875, 0.0625, 0.0725
3577, 0.25, 0.0625, 0.0725
3578, 0.3125, 0.0625, 0.0725
3579, 0.375, 0.0625, 0.0725
3580, 0.4375, 0.0625, 0.0725
3581, 0.5, 0.0625, 0.0725
3582, 0.5625, 0.0625, 0.0725
3583, 0.625, 0.0625, 0.0725
3584, 0.6875, 0.0625, 0.0725
3585, 0.75, 0.0625, 0.0725
3586, 0.8125, 0.0625, 0.0725
3587, 0.875, 0.0625, 0.0725
3588, 0.9375, 0.0625, 0.0725
3589, 1, 0.0625, 0.0725
3590, 1.0625, 0.0625, 0.0725
3591, 1.125, 0.0625, 0.0725
3592, 1.1875, 0.0625, 0.0725
3593, 1.25, 0.0625, 0.0725
3594, 1.3125, 0.0625, 0.0725
3595, 1.375, 0.0625, 0.0725
3596, 1.4375, 0.0625, 0.0725
3597, 1.5, 0.0625, 0.0725
3598, -0.5, 0.125, 0.0725
3599, -0.4375, 0.125, 0.0725
3600, -0.375, 0.125, 0.0725
3601, -0.3125, 0.125, 0.0725
3602, -0.25, 0.125, 0.0725
3603, -0.1875, 0.125, 0.0725
3604, -0.125, 0.125, 0.0725
3605, -0.0625, 0.125, 0.0725
3606, 0, 0.125, 0.0725
3607, 0.0625, 0.125, 0.0725
3608, 0.125, 0.125, 0.0725
3609, 0.1875, 0.125, 0.0725
3610, 0.25, 0.125, 0.0725
3611, 0.3125, 0.125, 0.0725
3612, 0.375, 0.125, 0.0725
3613, 0.4375, 0.125, 0.0725
3614, 0.5, 0.125, 0.0725
3615, 0.5625, 0.125, 0.0725
3616, 0.625, 0.125, 0.0725
3617, 0.6875, 0.125, 0.0725
3618, 0.75, 0.125, 0.0725
3619, 0.8125, 0.125, 0.0725
3620, 0.875, 0.125, 0.0725
3621, 0.9375, 0.125, 0.0725
3622, 1, 0.125, 0.0725
3623, 1.0625, 0.125, 0.0725
3624, 1.125, 0.125, 0.0725
3625, 1.1875, 0.125, 0.0725
3626, 1.25, 0.125, 0.0725
3627, 1.3125, 0.125, 0.0725
3628, 1.375, 0.125, 0.0725
3629, 1.4375, 0.125, 0.0725
3630, 1.5, 0.125, 0.0725
3631, -0.5, 0.1875, 0.0725
3632, -0.4375, 0.1875, 0.0725
3633, -0.375, 0.1875, 0.0725
3634, -0.3125, 0.1875, 0.0725
3635, -0.25, 0.1875, 0.0725
3636, -0.1875, 0.1875, 0.0725
3637, -0.125, 0.1875, 0.0725
3638, -0.0625, 0.1875, 0.0725
3639, 0, 0.1875, 0.0725
3640, 0.0625, 0.1875, 0.0725
3641, 0.125, 0.1875, 0.0725
3642, 0.1875, 0.1875, 0.0725
3643, 0.25, 0.1875, 0.0725
3644, 0.3125, 0.1875, 0.0725
3645, 0.375, 0.1875, 0.0725
3646, 0.4375, 0.1875, 0.0725
3647, 0.5, 0.1875, 0.0725
3648, 0.5625, 0.1875, 0.0725
3649, 0.625, 0.1875, 0.0725
3650, 0.6875, 0.1875, 0.0725
3651, 0.75, 0.1875, 0.0725
3652, 0.8125, 0.1875, 0.0725
3653, 0.875, 0.1875, 0.0725
3654, 0.9375, 0.1875, 0.0725
3655, 1, 0.1875, 0.0725
3656, 1.0625, 0.1875, 0.0725
3657, 1.125, 0.1875, 0.0725
3658, 1.1875, 0.1875, 0.0725
3659, 1.25, 0.1875, 0.0725
3660, 1.3125, 0.1875, 0.0725
3661, 1.375, 0.1875, 0.0725
3662, 1.4375, 0.1875, 0.0725
3663, 1.5, 0.1875, 0.0725
3664, -0.5, 0.25, 0.0725
3665, -0.4375, 0.25, 0.0725
3666, -0.375, 0.25, 0.0725
3667, -0.3125, 0.25, 0.0725
3668, -0.25, 0.25, 0.0725
3669, -0.1875, 0.25, 0.0725
3670, -0.125, 0.25, 0.0725
3671, -0.0625, 0.25, 0.0725
3672, 0, 0.25, 0.0725
3673, 0.0625, 0.25, 0.0725
3674, 0.125, 0.25, 0.0725
3675, 0.1875, 0.25, 0.0725
3676, 0.25, 0.25, 0.0725
3677, 0.3125, 0.25, 0.0725
3678, 0.375, 0.25, 0.0725
3679, 0.4375, 0.25, 0.0725
3680, 0.5, 0.25, 0.0725
3681, 0.5625, 0.25, 0.0725
3682, 0.625, 0.25, 0.0725
3683, 0.6875, 0.25, 0.0725
3684, 0.75, 0.25, 0.0725
3685, 0.8125, 0.25, 0.0725
3686, 0.875, 0.25, 0.0725
3687, 0.9375, 0.25, 0.0725
3688, 1, 0.25, 0.0725
3689, 1.0625, 0.25, 0.0725
3690, 1.125, 0.25, 0.0725
3691, 1.1875, 0.25, 0.0725
3692, 1.25, 0.25, 0.0725
3693, 1.3125, 0.25, 0.0725
3694, 1.375, 0.25, 0.0725
3695, 1.4375, 0.25, 0.0725
3696, 1.5, 0.25, 0.0725
3697, -0.5, 0.3125, 0.0725
3698, -0.4375, 0.3125, 0.0725
3699, -0.375, 0.3125, 0.0725
3700, -0.3125, 0.3125, 0.0725
3701, -0.25, 0.3125, 0.0725
3702, -0.1875, 0.3125, 0.0725
3703, -0.125, 0.3125, 0.0725
3704, -0.0625, 0.3125, 0.0725
3705, 0, 0.3125, 0.0725
3706, 0.0625, 0.3125, 0.0725
3707, 0.125, 0.3125, 0.0725
3708, 0.1875, 0.3125, 0.0725
3709, 0.25, 0.3125, 0.0725
3710, 0.3125, 0.3125, 0.0725
3711, 0.375, 0.3125, 0.0725
3712, 0.4375, 0.3125, 0.0725
3713, 0.5, 0.3125, 0.0725
3714, 0.5625, 0.3125, 0.0725
3715, 0.625, 0.3125, 0.0725
3716, 0.6875, 0.3125, 0.0725
3717, 0.75, 0.3125, 0.0725
3718, 0.8125, 0.3125, 0.0725
3719, 0.875, 0.3125, 0.0725
3720, 0.9375, 0.3125, 0.0725
3721, 1, 0.3125, 0.0725
3722, 1.0625, 0.3125, 0.0725
3723, 1.125, 0.3125, 0.0725
3724, 1.1875, 0.3125, 0.0725
3725, 1.25, 0.3125, 0.0725
3726, 1.3125, 0.3125, 0.0725
3727, 1.375, 0.3125, 0.0725
3728, 1.4375, 0.3125, 0.0725
3729, 1.5, 0.3125, 0.0725
3730, -0.5, 0.375, 0.0725
3731, -0.4375, 0.375, 0.0725
3732, -0.375, 0.375, 0.0725
3733, -0.3125, 0.375, 0.0725
3734, -0.25, 0.375, 0.0725
3735, -0.1875, 0.375, 0.0725
3736, -0.125, 0.375, 0.0725
3737, -0.0625, 0.375, 0.0725
3738, 0, 0.375, 0.0725
3739, 0.0625, 0.375, 0.0725
3740, 0.125, 0.375, 0.0725
3741, 0.1875, 0.375, 0.0725
3742, 0.25, 0.375, 0.0725
3743, 0.3125, 0.375, 0.0725
3744, 0.375, 0.375, 0.0725
3745, 0.4375, 0.375, 0.0725
3746, 0.5, 0.375, 0.0725
3747, 0.5625, 0.375, 0.0725
3748, 0.625, 0.375, 0.0725
3749, 0.6875, 0.375, 0.0725
3750, 0.75, 0.375, 0.0725
3751, 0.8125, 0.375, 0.0725
3752, 0.875, 0.375, 0.0725
3753, 0.9375, 0.375, 0.0725
3754, 1, 0.375, 0.0725
3755, 1.0625, 0.375, 0.0725
3756, 1.125, 0.375, 0.0725
3757, 1.1875, 0.375, 0.0725
3758, 1.25, 0.375, 0.0725
3759, 1.3125, 0.375, 0.0725
3760, 1.375, 0.375, 0.0725
3761, 1.4375, 0.375, 0.0725
3762, 1.5, 0.375, 0.0725
3763, -0.5, 0.4375, 0.0725
3764, -0.4375, 0.4375, 0.0725
3765, -0.375, 0.4375, 0.0725
3766, -0.3125, 0.4375, 0.0725
3767, -0.25, 0.4375, 0.0725
3768, -0.1875, 0.4375, 0.0725
3769, -0.125, 0.4375, 0.0725
3770, -0.0625, 0.4375, 0.0725
3771, 0, 0.4375, 0.0725
3772, 0.0625, 0.4375, 0.0725
3773, 0.125, 0.4375, 0.0725
3774, 0.1875, 0.4375, 0.0725
3775, 0.25, 0.4375, 0.0725
3776, 0.3125, 0.4375, 0.0725
3777, 0.375, 0.4375, 0.0725
3778, 0.4375, 0.4375, 0.0725
3779, 0.5, 0.4375, 0.0725
3780, 0.5625, 0.4375, 0.0725
3781, 0.625, 0.4375, 0.0725
3782, 0.6875, 0.4375, 0.0725
3783, 0.75, 0.4375, 0.0725
3784, 0.8125, 0.4375, 0.0725
3785, 0.875, 0.4375, 0.0725
3786, 0.9375, 0.4375, 0.0725
3787, 1, 0.4375, 0.0725
3788, 1.0625, 0.4375, 0.0725
3789, 1.125, 0.4375, 0.0725
3790, 1.1875, 0.4375, 0.0725
3791, 1.25, 0.4375, 0.0725
3792, 1.3125, 0.4375, 0.0725
3793, 1.375, 0.4375, 0.0725
3794, 1.4375, 0.4375, 0.0725
3795, 1.5, 0.4375, 0.0725
3796, -0.5, 0.5, 0.0725
3797, -0.4375, 0.5, 0.0725
3798, -0.375, 0.5, 0.0725
3799, -0.3125, 0.5, 0.0725
3800, -0.25, 0.5, 0.0725
3801, -0.1875, 0.5, 0.0725
3802, -0.125, 0.5, 0.0725
3803, -0.0625, 0.5, 0.0725
3804, 0, 0.5, 0.0725
3805, 0.0625, 0.5, 0.0725
3806, 0.125, 0.5, 0.0725
3807, 0.1875, 0.5, 0.0725
3808, 0.25, 0.5, 0.0725
3809, 0.3125, 0.5, 0.0725
3810, 0.375, 0.5, 0.0725
3811, 0.4375, 0.5, 0.0725
3812, 0.5, 0.5, 0.0725
3813, 0.5625, 0.5, 0.0725
3814, 0.625, 0.5, 0.0725
3815, 0.6875, 0.5, 0.0725
3816, 0.75, 0.5, 0.0725
3817, 0.8125, 0.5, 0.0725
3818, 0.875, 0.5, 0.0725
3819, 0.9375, 0.5, 0.0725
3820, 1, 0.5, 0.0725
3821, 1.0625, 0.5, 0.0725
3822, 1.125, 0.5, 0.0725
3823, 1.1875, 0.5, 0.0725
3824, 1.25, 0.5, 0.0725
3825, 1.3125, 0.5, 0.0725
3826, 1.375, 0.5, 0.0725
3827, 1.4375, 0.5, 0.0725
3828, 1.5, 0.5, 0.0725
3829, -0.5, 0.5625, 0.0725
3830, -0.4375, 0.5625, 0.0725
3831, -0.375, 0.5625, 0.0725
3832, -0.3125, 0.5625, 0.0725
3833, -0.25, 0.5625, 0.0725
3834, -0.1875, 0.5625, 0.0725
3835, -0.125, 0.5625, 0.0725
3836, -0.0625, 0.5625, 0.0725
3837, 0, 0.5625, 0.0725
3838, 0.0625, 0.5625, 0.0725
3839, 0.125, 0.5625, 0.0725
3840, 0.1875, 0.5625, 0.0725
3841, 0.25, 0.5625, 0.0725
3842, 0.3125, 0.5625, 0.0725
3843, 0.375, 0.5625, 0.0725
3844, 0.4375, 0.5625, 0.0725
3845, 0.5, 0.5625, 0.0725
3846, 0.5625, 0.5625, 0.0725
3847, 0.625, 0.5625, 0.0725
3848, 0.6875, 0.5625, 0.0725
3849, 0.75, 0.5625, 0.0725
3850, 0.8125, 0.5625, 0.0725
3851, 0.875, 0.5625, 0.0725
3852, 0.9375, 0.5625, 0.0725
3853, 1, 0.5625, 0.0725
3854, 1.0625, 0.5625, 0.0725
3855, 1.125, 0.5625, 0.0725
3856, 1.1875, 0.5625, 0.0725
3857, 1.25, 0.5625, 0.0725
3858, 1.3125, 0.5625, 0.0725
3859, 1.375, 0.5625, 0.0725
3860, 1.4375, 0.5625, 0.0725
3861, 1.5, 0.5625, 0.0725
3862, -0.5, 0.625, 0.0725
3863, -0.4375, 0.625, 0.0725
3864, -0.375, 0.625, 0.0725
3865, -0.3125, 0.625, 0.0725
3866, -0.25, 0.625, 0.0725
3867, -0.1875, 0.625, 0.0725
3868, -0.125, 0.625, 0.0725
3869, -0.0625, 0.625, 0.0725
3870, 0, 0.625, 0.0725
3871, 0.0625, 0.625, 0.0725
3872, 0.125, 0.625, 0.0725
3873, 0.1875, 0.625, 0.0725
3874, 0.25, 0.625, 0.0725
3875, 0.3125, 0.625, 0.0725
3876, 0.375, 0.625, 0.0725
3877, 0.4375, 0.625, 0.0725
3878, 0.5, 0.625, 0.0725
3879, 0.5625, 0.625, 0.0725
3880, 0.625, 0.625, 0.0725
3881, 0.6875, 0.625, 0.0725
3882, 0.75, 0.625, 0.0725
3883, 0.8125, 0.625, 0.0725
3884, 0.875, 0.625, 0.0725
3885, 0.9375, 0.625, 0.0725
3886, 1, 0.625, 0.0725
3887, 1.0625, 0.625, 0.0725
3888, 1.125, 0.625, 0.0725
3889, 1.1875, 0.625, 0.0725
3890, 1.25, 0.625, 0.0725
3891, 1.3125, 0.625, 0.0725
3892, 1.375, 0.625, 0.0725
3893, 1.4375, 0.625, 0.0725
3894, 1.5, 0.625, 0.0725
3895, -0.5, 0.6875, 0.0725
3896, -0.4375, 0.6875, 0.0725
3897, -0.375, 0.6875, 0.0725
3898, -0.3125, 0.6875, 0.0725
3899, -0.25, 0.6875, 0.0725
3900, -0.1875, 0.6875, 0.0725
3901, -0.125, 0.6875, 0.0725
3902, -0.0625, 0.6875, 0.0725
3903, 0, 0.6875, 0.0725
3904, 0.0625, 0.6875, 0.0725
3905, 0.125, 0.6875, 0.0725
3906, 0.1875, 0.6875, 0.0725
3907, 0.25, 0.6875, 0.0725
3908, 0.3125, 0.6875, 0.0725
3909, 0.375, 0.6875, 0.0725
3910, 0.4375, 0.6875, 0.0725
3911, 0.5, 0.6875, 0.0725
3912, 0.5625, 0.6875, 0.0725
3913, 0.625, 0.6875, 0.0725
3914, 0.6875, 0.6875, 0.0725
3915, 0.75, 0.6875, 0.0725
3916, 0.8125, 0.6875, 0.0725
3917, 0.875, 0.6875, 0.0725
3918, 0.9375, 0.6875, 0.0725
3919, 1, 0.6875, 0.0725
3920, 1.0625, 0.6875, 0.0725
3921, 1.125, 0.6875, 0.0725
3922, 1.1875, 0.6875, 0.0725
3923, 1.25, 0.6875, 0.0725
3924, 1.3125, 0.6875, 0.0725
3925, 1.375, 0.6875, 0.0725
3926, 1.4375, 0.6875, 0.0725
3927, 1.5, 0.6875, 0.0725
3928, -0.5, 0.75, 0.0725
3929, -0.4375, 0.75, 0.0725
3930, -0.375, 0.75, 0.0725
3931, -0.3125, 0.75, 0.0725
3932, -0.25, 0.75, 0.0725
3933, -0.1875, 0.75, 0.0725
3934, -0.125, 0.75, 0.0725
3935, -0.0625, 0.75, 0.0725
3936, 0, 0.75, 0.0725
3937, 0.0625, 0.75, 0.0725
3938, 0.125, 0.75, 0.0725
3939, 0.1875, 0.75, 0.0725
3940, 0.25, 0.75, 0.0725
3941, 0.3125, 0.75, 0.0725
3942, 0.375, 0.75, 0.0725
3943, 0.4375, 0.75, 0.0725
3944, 0.5, 0.75, 0.0725
3945, 0.5625, 0.75, 0.0725
3946, 0.625, 0.75, 0.0725
3947, 0.6875, 0.75, 0.0725
3948, 0.75, 0.75, 0.0725
3949, 0.8125, 0.75, 0.0725
3950, 0.875, 0.75, 0.0725
3951, 0.9375, 0.75, 0.0725
3952, 1, 0.75, 0.0725
3953, 1.0625, 0.75, 0.0725
3954, 1.125, 0.75, 0.0725
3955, 1.1875, 0.75, 0.0725
3956, 1.25, 0.75, 0.0725
3957, 1.3125, 0.75, 0.0725
3958, 1.375, 0.75, 0.0725
3959, 1.4375, 0.75, 0.0725
3960, 1.5, 0.75, 0.0725
3961, -0.5, 0.8125, 0.0725
3962, -0.4375, 0.8125, 0.0725
3963, -0.375, 0.8125, 0.0725
3964, -0.3125, 0.8125, 0.0725
3965, -0.25, 0.8125, 0.0725
3966, -0.1875, 0.8125, 0.0725
3967, -0.125, 0.8125, 0.0725
3968, -0.0625, 0.8125, 0.0725
3969, 0, 0.8125, 0.0725
3970, 0.0625, 0.8125, 0.0725
3971, 0.125, 0.8125, 0.0725
3972, 0.1875, 0.8125, 0.0725
3973, 0.25, 0.8125, 0.0725
3974, 0.3125, 0.8125, 0.0725
3975, 0.375, 0.8125, 0.0725
3976, 0.4375, 0.8125, 0.0725
3977, 0.5, 0.8125, 0.0725
3978, 0.5625, 0.8125, 0.0725
3979, 0.625, 0.8125, 0.0725
3980, 0.6875, 0.8125, 0.0725
3981, 0.75, 0.8125, 0.0725
3982, 0.8125, 0.8125, 0.0725
3983, 0.875, 0.8125, 0.0725
3984, 0.9375, 0.8125, 0.0725
3985, 1, 0.8125, 0.0725
3986, 1.0625, 0.8125, 0.0725
3987, 1.125, 0.8125, 0.0725
3988, 1.1875, 0.8125, 0.0725
3989, 1.25, 0.8125, 0.0725
3990, 1.3125, 0.8125, 0.0725
3991, 1.375, 0.8125, 0.0725
3992, 1.4375, 0.8125, 0.0725
3993, 1.5, 0.8125, 0.0725
3994, -0.5, 0.875, 0.0725
3995, -0.4375, 0.875, 0.0725
3996, -0.375, 0.875, 0.0725
3997, -0.3125, 0.875, 0.0725
3998, -0.25, 0.875, 0.0725
3999, -0.1875, 0.875, 0.0725
4000, -0.125, 0.875, 0.0725
4001, -0.0625, 0.875, 0.0725
4002, 0, 0.875, 0.0725
4003, 0.0625, 0.875, 0.0725
4004, 0.125, 0.875, 0.0725
4005, 0.1875, 0.875, 0.0725
4006, 0.25, 0.875, 0.0725
4007, 0.3125, 0.875, 0.0725
4008, 0.375, 0.875, 0.0725
4009, 0.4375, 0.875, 0.0725
4010, 0.5, 0.875, 0.0725
4011, 0.5625, 0.875, 0.0725
4012, 0.625, 0.875, 0.0725
4013, 0.6875, 0.875, 0.0725
4014, 0.75, 0.875, 0.0725
4015, 0.8125, 0.875, 0.0725
4016, 0.875, 0.875, 0.0725
4017, 0.9375, 0.875, 0.0725
4018, 1, 0.875, 0.0725
4019, 1.0625, 0.875, 0.0725
4020, 1.125, 0.875, 0.0725
4021, 1.1875, 0.875, 0.0725
4022, 1.25, 0.875, 0.0725
4023, 1.3125, 0.875, 0.0725
4024, 1.375, 0.875, 0.0725
4025, 1.4375, 0.875, 0.0725
4026, 1.5, 0.875, 0.0725
4027, -0.5, 0.9375, 0.0725
4028, -0.4375, 0.9375, 0.0725
4029, -0.375, 0.9375, 0.0725
4030, -0.3125, 0.9375, 0.0725
4031, -0.25, 0.9375, 0.0725
4032, -0.1875, 0.9375, 0.0725
4033, -0.125, 0.9375, 0.0725
4034, -0.0625, 0.9375, 0.0725
4035, 0, 0.9375, 0.0725
4036, 0.0625, 0.9375, 0.0725
4037, 0.125, 0.9375, 0.0725
4038, 0.1875, 0.9375, 0.0725
4039, 0.25, 0.9375, 0.0725
4040, 0.3125, 0.9375, 0.0725
4041, 0.375, 0.9375, 0.0725
4042, 0.4375, 0.9375, 0.0725
4043, 0.5, 0.9375, 0.0725
4044, 0.5625, 0.9375, 0.0725
4045, 0.625, 0.9375, 0.0725
4046, 0.6875, 0.9375, 0.0725
4047, 0.75, 0.9375, 0.0725
4048, 0.8125, 0.9375, 0.0725
4049, 0.875, 0.9375, 0.0725
4050, 0.9375, 0.9375, 0.0725
4051, 1, 0.9375, 0.0725
4052, 1.0625, 0.9375, 0.0725
4053, 1.125, 0.9375, 0.0725
4054, 1.1875, 0.9375, 0.0725
4055, 1.25, 0.9375, 0.0725
4056, 1.3125, 0.9375, 0.0725
4057, 1.375, 0.9375, 0.0725
4058, 1.4375, 0.9375, 0.0725
4059, 1.5, 0.9375, 0.0725
4060, -0.5, 1, 0.0725
4061, -0.4375, 1, 0.0725
4062, -0.375, 1, 0.0725
4063, -0.3125, 1, 0.0725
4064, -0.25, 1, 0.0725
4065, -0.1875, 1, 0.0725
4066, -0.125, 1, 0.0725
4067, -0.0625, 1, 0.0725
4068, 0, 1, 0.0725
4069, 0.0625, 1, 0.0725
4070, 0.125, 1, 0.0725
4071, 0.1875, 1, 0.0725
4072, 0.25, 1, 0.0725
4073, 0.3125, 1, 0.0725
4074, 0.375, 1, 0.0725
4075, 0.4375, 1, 0.0725
4076, 0.5, 1, 0.0725
4077, 0.5625, 1, 0.0725
4078, 0.625, 1, 0.0725
4079, 0.6875, 1, 0.0725
4080, 0.75, 1, 0.0725
4081, 0.8125, 1, 0.0725
4082, 0.875, 1, 0.0725
4083, 0.9375, 1, 0.0725
4084, 1, 1, 0.0725
4085, 1.0625, 1, 0.0725
4086, 1.125, 1, 0.0725
4087, 1.1875, 1, 0.0725
4088, 1.25, 1, 0.0725
4089, 1.3125, 1, 0.0725
4090, 1.375, 1, 0.0725
4091, 1.4375, 1, 0.0725
4092, 1.5, 1, 0.0725
4093, -0.5, 1.0625, 0.0725
4094, -0.4375, 1.0625, 0.0725
4095, -0.375, 1.0625, 0.0725
4096, -0.3125, 1.0625, 0.0725
4097, -0.25, 1.0625, 0.0725
4098, -0.1875, 1.0625, 0.0725
4099, -0.125, 1.0625, 0.0725
4100, -0.0625, 1.0625, 0.0725
4101, 0, 1.0625, 0.0725
4102, 0.0625, 1.0625, 0.0725
4103, 0.125, 1.0625, 0.0725
4104, 0.1875, 1.0625, 0.0725
4105, 0.25, 1.0625, 0.0725
4106, 0.3125, 1.0625, 0.0725
4107, 0.375, 1.0625, 0.0725
4108, 0.4375, 1.0625, 0.0725
4109, 0.5, 1.0625, 0.0725
4110, 0.5625, 1.0625, 0.0725
4111, 0.625, 1.0625, 0.0725
4112, 0.6875, 1.0625, 0.0725
4113, 0.75, 1.0625, 0.0725
4114, 0.8125, 1.0625, 0.0725
4115, 0.875, 1.0625, 0.0725
4116, 0.9375, 1.0625, 0.0725
4117, 1, 1.0625, 0.0725
4118, 1.0625, 1.0625, 0.0725
4119, 1.125, 1.0625, 0.0725
4120, 1.1875, 1.0625, 0.0725
4121, 1.25, 1.0625, 0.0725
4122, 1.3125, 1.0625, 0.0725
4123, 1.375, 1.0625, 0.0725
4124, 1.4375, 1.0625, 0.0725
4125, 1.5, 1.0625, 0.0725
4126, -0.5, 1.125, 0.0725
4127, -0.4375, 1.125, 0.0725
4128, -0.375, 1.125, 0.0725
4129, -0.3125, 1.125, 0.0725
4130, -0.25, 1.125, 0.0725
4131, -0.1875, 1.125, 0.0725
4132, -0.125, 1.125, 0.0725
4133, -0.0625, 1.125, 0.0725
4134, 0, 1.125, 0.0725
4135, 0.0625, 1.125, 0.0725
4136, 0.125, 1.125, 0.0725
4137, 0.1875, 1.125, 0.0725
4138, 0.25, 1.125, 0.0725
4139, 0.3125, 1.125, 0.0725
4140, 0.375, 1.125, 0.0725
4141, 0.4375, 1.125, 0.0725
4142, 0.5, 1.125, 0.0725
4143, 0.5625, 1.125, 0.0725
4144, 0.625, 1.125, 0.0725
4145, 0.6875, 1.125, 0.0725
4146, 0.75, 1.125, 0.0725
4147, 0.8125, 1.125, 0.0725
4148, 0.875, 1.125, 0.0725
4149, 0.9375, 1.125, 0.0725
4150, 1, 1.125, 0.0725
4151, 1.0625, 1.125, 0.0725
4152, 1.125, 1.125, 0.0725
4153, 1.1875, 1.125, 0.0725
4154, 1.25, 1.125, 0.0725
4155, 1.3125, 1.125, 0.0725
4156, 1.375, 1.125, 0.0725
4157, 1.4375, 1.125, 0.0725
4158, 1.5, 1.125, 0.0725
4159, -0.5, 1.1875, 0.0725
4160, -0.4375, 1.1875, 0.0725
4161, -0.375, 1.1875, 0.0725
4162, -0.3125, 1.1875, 0.0725
4163, -0.25, 1.1875, 0.0725
4164, -0.1875, 1.1875, 0.0725
4165, -0.125, 1.1875, 0.0725
4166, -0.0625, 1.1875, 0.0725
4167, 0, 1.1875, 0.0725
4168, 0.0625, 1.1875, 0.0725
4169, 0.125, 1.1875, 0.0725
4170, 0.1875, 1.1875, 0.0725
4171, 0.25, 1.1875, 0.0725
4172, 0.3125, 1.1875, 0.0725
4173, 0.375, 1.1875, 0.0725
4174, 0.4375, 1.1875, 0.0725
4175, 0.5, 1.1875, 0.0725
4176, 0.5625, 1.1875, 0.0725
4177, 0.625, 1.1875, 0.0725
4178, 0.6875, 1.1875, 0.0725
4179, 0.75, 1.1875, 0.0725
4180, 0.8125, 1.1875, 0.0725
4181, 0.875, 1.1875, 0.0725
4182, 0.9375, 1.1875, 0.0725
4183, 1, 1.1875, 0.0725
4184, 1.0625, 1.1875, 0.0725
4185, 1.125, 1.1875, 0.0725
4186, 1.1875, 1.1875, 0.0725
4187, 1.25, 1.1875, 0.0725
4188, 1.3125, 1.1875, 0.0725
4189, 1.375, 1.1875, 0.0725
4190, 1.4375, 1.1875, 0.0725
4191, 1.5, 1.1875, 0.0725
4192, -0.5, 1.25, 0.0725
4193, -0.4375, 1.25, 0.0725
4194, -0.375, 1.25, 0.0725
4195, -0.3125, 1.25, 0.0725
4196, -0.25, 1.25, 0.0725
4197, -0.1875, 1.25, 0.0725
4198, -0.125, 1.25, 0.0725
4199, -0.0625, 1.25, 0.0725
4200, 0, 1.25, 0.0725
4201, 0.0625, 1.25, 0.0725
4202, 0.125, 1.25, 0.0725
4203, 0.1875, 1.25, 0.0725
4204, 0.25, 1.25, 0.0725
4205, 0.3125, 1.25, 0.0725
4206, 0.375, 1.25, 0.0725
4207, 0.4375, 1.25, 0.0725
4208, 0.5, 1.25, 0.0725
4209, 0.5625, 1.25, 0.0725
4210, 0.625, 1.25, 0.0725
4211, 0.6875, 1.25, 0.0725
4212, 0.75, 1.25, 0.0725
4213, 0.8125, 1.25, 0.0725
4214, 0.875, 1.25, 0.0725
4215, 0.9375, 1.25, 0.0725
4216, 1, 1.25, 0.0725
4217, 1.0625, 1.25, 0.0725
4218, 1.125, 1.25, 0.0725
4219, 1.1875, 1.25, 0.0725
4220, 1.25, 1.25, 0.0725
4221, 1.3125, 1.25, 0.0725
4222, 1.375, 1.25, 0.0725
4223, 1.4375, 1.25, 0.0725
4224, 1.5, 1.25, 0.0725
4225, -0.5, 1.3125, 0.0725
4226, -0.4375, 1.3125, 0.0725
4227, -0.375, 1.3125, 0.0725
4228, -0.3125, 1.3125, 0.0725
4229, -0.25, 1.3125, 0.0725
4230, -0.1875, 1.3125, 0.0725
4231, -0.125, 1.3125, 0.0725
4232, -0.0625, 1.3125, 0.0725
4233, 0, 1.3125, 0.0725
4234, 0.0625, 1.3125, 0.0725
4235, 0.125, 1.3125, 0.0725
4236, 0.1875, 1.3125, 0.0725
4237, 0.25, 1.3125, 0.0725
4238, 0.3125, 1.3125, 0.0725
4239, 0.375, 1.3125, 0.0725
4240, 0.4375, 1.3125, 0.0725
4241, 0.5, 1.3125, 0.0725
4242, 0.5625, 1.3125, 0.0725
4243, 0.625, 1.3125, 0.0725
4244, 0.6875, 1.3125, 0.0725
4245, 0.75, 1.3125, 0.0725
4246, 0.8125, 1.3125, 0.0725
4247, 0.875, 1.3125, 0.0725
4248, 0.9375, 1.3125, 0.0725
4249, 1, 1.3125, 0.0725
4250, 1.0625, 1.3125, 0.0725
4251, 1.125, 1.3125, 0.0725
4252, 1.1875, 1.3125, 0.0725
4253, 1.25, 1.3125, 0.0725
4254, 1.3125, 1.3125, 0.0725
4255, 1.375, 1.3125, 0.0725
4256, 1.4375, 1.3125, 0.0725
4257, 1.5, 1.3125, 0.0725
4258, -0.5, 1.375, 0.0725
4259, -0.4375, 1.375, 0.0725
4260, -0.375, 1.375, 0.0725
4261, -0.3125, 1.375, 0.0725
4262, -0.25, 1.375, 0.0725
4263, -0.1875, 1.375, 0.0725
4264, -0.125, 1.375, 0.0725
4265, -0.0625, 1.375, 0.0725
4266, 0, 1.375, 0.0725
4267, 0.0625, 1.375, 0.0725
4268, 0.125, 1.375, 0.0725
4269, 0.1875, 1.375, 0.0725
4270, 0.25, 1.375, 0.0725
4271, 0.3125, 1.375, 0.0725
4272, 0.375, 1.375, 0.0725
4273, 0.4375, 1.375, 0.0725
4274, 0.5, 1.375, 0.0725
4275, 0.5625, 1.375, 0.0725
4276, 0.625, 1.375, 0.0725
4277, 0.6875, 1.375, 0.0725
4278, 0.75, 1.375, 0.0725
4279, 0.8125, 1.375, 0.0725
4280, 0.875, 1.375, 0.0725
4281, 0.9375, 1.375, 0.0725
4282, 1, 1.375, 0.0725
4283, 1.0625, 1.375, 0.0725
4284, 1.125, 1.375, 0.0725
4285, 1.1875, 1.375, 0.0725
4286, 1.25, 1.375, 0.0725
4287, 1.3125, 1.375, 0.0725
4288, 1.375, 1.375, 0.0725
4289, 1.4375, 1.375, 0.0725
4290, 1.5, 1.375, 0.0725
4291, -0.5, 1.4375, 0.0725
4292, -0.4375, 1.4375, 0.0725
4293, -0.375, 1.4375, 0.0725
4294, -0.3125, 1.4375, 0.0725
4295, -0.25, 1.4375, 0.0725
4296, -0.1875, 1.4375, 0.0725
4297, -0.125, 1.4375, 0.0725
4298, -0.0625, 1.4375, 0.0725
4299, 0, 1.4375, 0.0725
4300, 0.0625, 1.4375, 0.0725
4301, 0.125, 1.4375, 0.0725
4302, 0.1875, 1.4375, 0.0725
4303, 0.25, 1.4375, 0.0725
4304, 0.3125, 1.4375, 0.0725
4305, 0.375, 1.4375, 0.0725
4306, 0.4375, 1.4375, 0.0725
4307, 0.5, 1.4375, 0.0725
4308, 0.5625, 1.4375, 0.0725
4309, 0.625, 1.4375, 0.0725
4310, 0.6875, 1.4375, 0.0725
4311, 0.75, 1.4375, 0.0725
4312, 0.8125, 1.4375, 0.0725
4313, 0.875, 1.4375, 0.0725
4314, 0.9375, 1.4375, 0.0725
4315, 1, 1.4375, 0.0725
4316, 1.0625, 1.4375, 0.0725
4317, 1.125, 1.4375, 0.0725
4318, 1.1875, 1.4375, 0.0725
4319, 1.25, 1.4375, 0.0725
4320, 1.3125, 1.4375, 0.0725
4321, 1.375, 1.4375, 0.0725
4322, 1.4375, 1.4375, 0.0725
4323, 1.5, 1.4375, 0.0725
4324, -0.5, 1.5, 0.0725
4325, -0.4375, 1.5, 0.0725
4326, -0.375, 1.5, 0.0725
4327, -0.3125, 1.5, 0.0725
4328, -0.25, 1.5, 0.0725
4329, -0.1875, 1.5, 0.0725
4330, -0.125, 1.5, 0.0725
4331, -0.0625, 1.5, 0.0725
4332, 0, 1.5, 0.0725
4333, 0.0625, 1.5, 0.0725
4334, 0.125, 1.5, 0.0725
4335, 0.1875, 1.5, 0.0725
4336, 0.25, 1.5, 0.0725
4337, 0.3125, 1.5, 0.0725
4338, 0.375, 1.5, 0.0725
4339, 0.4375, 1.5, 0.0725
4340, 0.5, 1.5, 0.0725
4341, 0.5625, 1.5, 0.0725
4342, 0.625, 1.5, 0.0725
4343, 0.6875, 1.5, 0.0725
4344, 0.75, 1.5, 0.0725
4345, 0.8125, 1.5, 0.0725
4346, 0.875, 1.5, 0.0725
4347, 0.9375, 1.5, 0.0725
4348, 1, 1.5, 0.0725
4349, 1.0625, 1.5, 0.0725
4350, 1.125, 1.5, 0.0725
4351, 1.1875, 1.5, 0.0725
4352, 1.25, 1.5, 0.0725
4353, 1.3125, 1.5, 0.0725
4354, 1.375, 1.5, 0.0725
4355, 1.4375, 1.5, 0.0725
4356, 1.5, 1.5, 0.0725
4357, -0.5, -0.5, 0.1
4358, -0.4375, -0.5, 0.1
4359, -0.375, -0.5, 0.1
4360, -0.3125, -0.5, 0.1
4361, -0.25, -0.5, 0.1
4362, -0.1875, -0.5, 0.1
4363, -0.125, -0.5, 0.1
4364, -0.0625, -0.5, 0.1
4365, 0, -0.5, 0.1
4366, 0.0625, -0.5, 0.1
4367, 0.125, -0.5, 0.1
4368, 0.1875, -0.5, 0.1
4369, 0.25, -0.5, 0.1
4370, 0.3125, -0.5, 0.1
4371, 0.375, -0.5, 0.1
4372, 0.4375, -0.5, 0.1
4373, 0.5, -0.5, 0.1
4374, 0.5625, -0.5, 0.1
4375, 0.625, -0.5, 0.1
4376, 0.6875, -0.5, 0.1
4377, 0.75, -0.5, 0.1
4378, 0.8125, -0.5, 0.1
4379, 0.875, -0.5, 0.1
4380, 0.9375, -0.5, 0.1
4381, 1, -0.5, 0.1
4382, 1.0625, -0.5, 0.1
4383, 1.125, -0.5, 0.1
4384, 1.1875, -0.5, 0.1
4385, 1.25, -0.5, 0.1
4386, 1.3125, -0.5, 0.1
4387, 1.375, -0.5, 0.1
4388, 1.4375, -0.5, 0.1
4389, 1.5, -0.5, 0.1
4390, -0.5, -0.4375, 0.1
4391, -0.4375, -0.4375, 0.1
4392, -0.375, -0.4375, 0.1
4393, -0.3125, -0.4375, 0.1
4394, -0.25, -0.4375, 0.1
4395, -0.1875, -0.4375, 0.1
4396, -0.125, -0.4375, 0.1
4397, -0.0625, -0.4375, 0.1
4398, 0, -0.4375, 0.1
4399, 0.0625, -0.4375, 0.1
4400, 0.125, -0.4375, 0.1
4401, 0.1875, -0.4375, 0.1
4402, 0.25, -0.4375, 0.1
4403, 0.3125, -0.4375, 0.1
4404, 0.375, -0.4375, 0.1
4405, 0.4375, -0.4375, 0.1
4406, 0.5, -0.4375, 0.1
4407, 0.5625, -0.4375, 0.1
4408, 0.625, -0.4375, 0.1
4409, 0.6875, -0.4375, 0.1
4410, 0.75, -0.4375, 0.1
4411, 0.8125, -0.4375, 0.1
4412, 0.875, -0.4375, 0.1
4413, 0.9375, -0.4375, 0.1
4414, 1, -0.4375, 0.1
4415, 1.0625, -0.4375, 0.1
4416, 1.125, -0.4375, 0.1
4417, 1.1875, -0.4375, 0.1
4418, 1.25, -0.4375, 0.1
4419, 1.3125, -0.4375, 0.1
4420, 1.375, -0.4375, 0.1
4421, 1.4375, -0.4375, 0.1
4422, 1.5, -0.4375, 0.1
4423, -0.5, -0.375, 0.1
4424, -0.4375, -0.375, 0.1
4425, -0.375, -0.375, 0.1
4426, -0.3125, -0.375, 0.1
4427, -0.25, -0.375, 0.1
4428, -0.1875, -0.375, 0.1
4429, -0.125, -0.375, 0.1
4430, -0.0625, -0.375, 0.1
4431, 0, -0.375, 0.1
4432, 0.0625, -0.375, 0.1
4433, 0.125, -0.375, 0.1
4434, 0.1875, -0.375, 0.1
4435, 0.25, -0.375, 0.1
4436, 0.3125, -0.375, 0.1
4437, 0.375, -0.375, 0.1
4438, 0.4375, -0.375, 0.1
4439, 0.5, -0.375, 0.1
4440, 0.5625, -0.375, 0.1
4441, 0.625, -0.375, 0.1
4442, 0.6875, -0.375, 0.1
4443, 0.75, -0.375, 0.1
4444, 0.8125, -0.375, 0.1
4445, 0.875, -0.375, 0.1
4446, 0.9375, -0.375, 0.1
4447, 1, -0.375, 0.1
4448, 1.0625, -0.375, 0.1
4449, 1.125, -0.375, 0.1
4450, 1.1875, -0.375, 0.1
4451, 1.25, -0.375, 0.1
4452, 1.3125, -0.375, 0.1
4453, 1.375, -0.375, 0.1
4454, 1.4375, -0.375, 0.1
4455, 1.5, -0.375, 0.1
4456, -0.5, -0.3125, 0.1
4457, -0.4375, -0.3125, 0.1
4458, -0.375, -0.3125, 0.1
4459, -0.3125, -0.3125, 0.1
4460, -0.25, -0.3125, 0.1
4461, -0.1875, -0.3125, 0.1
4462, -0.125, -0.3125, 0.1
4463, -0.0625, -0.3125, 0.1
4464, 0, -0.3125, 0.1
4465, 0.0625, -0.3125, 0.1
4466, 0.125, -0.3125, 0.1
4467, 0.1875, -0.3125, 0.1
4468, 0.25, -0.3125, 0.1
4469, 0.3125, -0.3125, 0.1
4470, 0.375, -0.3125, 0.1
4471, 0.4375, -0.3125, 0.1
4472, 0.5, -0.3125, 0.1
4473, 0.5625, -0.3125, 0.1
4474, 0.625, -0.3125, 0.1
4475, 0.6875, -0.3125, 0.1
4476, 0.75, -0.3125, 0.1
4477, 0.8125, -0.3125, 0.1
4478, 0.875, -0.3125, 0.1
4479, 0.9375, -0.3125, 0.1
4480, 1, -0.3125, 0.1
4481, 1.0625, -0.3125, 0.1
4482, 1.125, -0.3125, 0.1
4483, 1.1875, -0.3125, 0.1
4484, 1.25, -0.3125, 0.1
4485, 1.3125, -0.3125, 0.1
4486, 1.375, -0.3125, 0.1
4487, 1.4375, -0.3125, 0.1
4488, 1.5, -0.3125, 0.1
4489, -0.5, -0.25, 0.1
4490, -0.4375, -0.25, 0.1
4491, -0.375, -0.25, 0.1
4492, -0.3125, -0.25, 0.1
4493, -0.25, -0.25, 0.1
4494, -0.1875, -0.25, 0.1
4495, -0.125, -0.25, 0.1
4496, -0.0625, -0.25, 0.1
4497, 0, -0.25, 0.1
4498, 0.0625, -0.25, 0.1
4499, 0.125, -0.25, 0.1
4500, 0.1875, -0.25, 0.1
4501, 0.25, -0.25, 0.1
4502, 0.3125, -0.25, 0.1
4503, 0.375, -0.25, 0.1
4504, 0.4375, -0.25, 0.1
4505, 0.5, -0.25, 0.1
4506, 0.5625, -0.25, 0.1
4507, 0.625, -0.25, 0.1
4508, 0.6875, -0.25, 0.1
4509, 0.75, -0.25, 0.1
4510, 0.8125, -0.25, 0.1
4511, 0.875, -0.25, 0.1
4512, 0.9375, -0.25, 0.1
4513, 1, -0.25, 0.1
4514, 1.0625, -0.25, 0.1
4515, 1.125, -0.25, 0.1
4516, 1.1875, -0.25, 0.1
4517, 1.25, -0.25, 0.1
4518, 1.3125, -0.25, 0.1
4519, 1.375, -0.25, 0.1
4520, 1.4375, -0.25, 0.1
4521, 1.5, -0.25, 0.1
4522, -0.5, -0.1875, 0.1
4523, -0.4375, -0.1875, 0.1
4524, -0.375, -0.1875, 0.1
4525, -0.3125, -0.1875, 0.1
4526, -0.25, -0.1875, 0.1
4527, -0.1875, -0.1875, 0.1
4528, -0.125, -0.1875, 0.1
4529, -0.0625, -0.1875, 0.1
4530, 0, -0.1875, 0.1
4531, 0.0625, -0.1875, 0.1
4532, 0.125, -0.1875, 0.1
4533, 0.1875, -0.1875, 0.1
4534, 0.25, -0.1875, 0.1
4535, 0.3125, -0.1875, 0.1
4536, 0.375, -0.1875, 0.1
4537, 0.4375, -0.1875, 0.1
4538, 0.5, -0.1875, 0.1
4539, 0.5625, -0.1875, 0.1
4540, 0.625, -0.1875, 0.1
4541, 0.6875, -0.1875, 0.1
4542, 0.75, -0.1875, 0.1
4543, 0.8125, -0.1875, 0.1
4544, 0.875, -0.1875, 0.1
4545, 0.9375, -0.1875, 0.1
4546, 1, -0.1875, 0.1
4547, 1.0625, -0.1875, 0.1
4548, 1.125, -0.1875, 0.1
4549, 1.1875, -0.1875, 0.1
4550, 1.25, -0.1875, 0.1
4551, 1.3125, -0.1875, 0.1
4552, 1.375, -0.1875, 0.1
4553, 1.4375, -0.1875, 0.1
4554, 1.5, -0.1875, 0.1
4555, -0.5, -0.125, 0.1
4556, -0.4375, -0.125, 0.1
4557, -0.375, -0.125, 0.1
4558, -0.3125, -0.125, 0.1
4559, -0.25, -0.125, 0.1
4560, -0.1875, -0.125, 0.1
4561, -0.125, -0.125, 0.1
4562, -0.0625, -0.125, 0.1
4563, 0, -0.125, 0.1
4564, 0.0625, -0.125, 0.1
4565, 0.125, -0.125, 0.1
4566, 0.1875, -0.125, 0.1
4567, 0.25, -0.125, 0.1
4568, 0.3125, -0.125, 0.1
4569, 0.375, -0.125, 0.1
4570, 0.4375, -0.125, 0.1
4571, 0.5, -0.125, 0.1
4572, 0.5625, -0.125, 0.1
4573, 0.625, -0.125, 0.1
4574, 0.6875, -0.125, 0.1
4575, 0.75, -0.125, 0.1
4576, 0.8125, -0.125, 0.1
4577, 0.875, -0.125, 0.1
4578, 0.9375, -0.125, 0.1
4579, 1, -0.125, 0.1
4580, 1.0625, -0.125, 0.1
4581, 1.125, -0.125, 0.1
4582, 1.1875, -0.125, 0.1
4583, 1.25, -0.125, 0.1
4584, 1.3125, -0.125, 0.1
4585, 1.375, -0.125, 0.1
4586, 1.4375, -0.125, 0.1
4587, 1.5, -0.125, 0.1
4588, -0.5, -0.0625, 0.1
4589, -0.4375, -0.0625, 0.1
4590, -0.375, -0.0625, 0.1
4591, -0.3125, -0.0625, 0.1
4592, -0.25, -0.0625, 0.1
4593, -0.1875, -0.0625, 0.1
4594, -0.125, -0.0625, 0.1
4595, -0.0625, -0.0625, 0.1
4596, 0, -0.0625, 0.1
4597, 0.0625, -0.0625, 0.1
4598, 0.125, -0.0625, 0.1
4599, 0.1875, -0.0625, 0.1
4600, 0.25, -0.0625, 0.1
4601, 0.3125, -0.0625, 0.1
4602, 0.375, -0.0625, 0.1
4603, 0.4375, -0.0625, 0.1
4604, 0.5, -0.0625, 0.1
4605, 0.5625, -0.0625, 0.1
4606, 0.625, -0.0625, 0.1
4607, 0.6875, -0.0625, 0.1
4608, 0.75, -0.0625, 0.1
4609, 0.8125, -0.0625, 0.1
4610, 0.875, -0.0625, 0.1
4611, 0.9375, -0.0625, 0.1
4612, 1, -0.0625, 0.1
4613, 1.0625, -0.0625, 0.1
4614, 1.125, -0.0625, 0.1
4615, 1.1875, -0.0625, 0.1
4616, 1.25, -0.0625, 0.1
4617, 1.3125, -0.0625, 0.1
4618, 1.375, -0.0625, 0.1
4619, 1.4375, -0.0625, 0.1
4620, 1.5, -0.0625, 0.1
4621, -0.5, 0, 0.1
4622, -0.4375, 0, 0.1
4623, -0.375, 0, 0.1
4624, -0.3125, 0, 0.1
4625, -0.25, 0, 0.1
4626, -0.1875, 0, 0.1
4627, -0.125, 0, 0.1
4628, -0.0625, 0, 0.1
4629, 0, 0, 0.1
4630, 0.0625, 0, 0.1
4631, 0.125, 0, 0.1
4632, 0.1875, 0, 0.1
4633, 0.25, 0, 0.1
4634, 0.3125, 0, 0.1
4635, 0.375, 0, 0.1
4636, 0.4375, 0, 0.1
4637, 0.5, 0, 0.1
4638, 0.5625, 0, 0.1
4639, 0.625, 0, 0.1
4640, 0.6875, 0, 0.1
4641, 0.75, 0, 0.1
4642, 0.8125, 0, 0.1
4643, 0.875, 0, 0.1
4644, 0.9375, 0, 0.1
4645, 1, 0, 0.1
4646, 1.0625, 0, 0.1
4647, 1.125, 0, 0.1
4648, 1.1875, 0, 0.1
4649, 1.25, 0, 0.1
4650, 1.3125, 0, 0.1
4651, 1.375, 0, 0.1
4652, 1.4375, 0, 0.1
4653, 1.5, 0, 0.1
4654, -0.5, 0.0625, 0.1
4655, -0.4375, 0.0625, 0.1
4656, -0.375, 0.0625, 0.1
4657, -0.3125, 0.0625, 0.1
4658, -0.25, 0.0625, 0.1
4659, -0.1875, 0.0625, 0.1
4660, -0.125, 0.0625, 0.1
4661, -0.0625, 0.0625, 0.1
4662, 0, 0.0625, 0.1
4663, 0.0625, 0.0625, 0.1
4664, 0.125, 0.0625, 0.1
4665, 0.1875, 0.0625, 0.1
4666, 0.25, 0.0625, 0.1
4667, 0.3125, 0.0625, 0.1
4668, 0.375, 0.0625, 0.1
4669, 0.4375, 0.0625, 0.1
4670, 0.5, 0.0625, 0.1
4671, 0.5625, 0.0625, 0.1
4672, 0.625, 0.0625, 0.1
4673, 0.6875, 0.0625, 0.1
4674, 0.75, 0.0625, 0.1
4675, 0.8125, 0.0625, 0.1
4676, 0.875, 0.0625, 0.1
4677, 0.9375, 0.0625, 0.1
4678, 1, 0.0625, 0.1
4679, 1.0625, 0.0625, 0.1
4680, 1.125, 0.0625, 0.1
4681, 1.1875, 0.0625, 0.1
4682, 1.25, 0.0625, 0.1
4683, 1.3125, 0.0625, 0.1
4684, 1.375, 0.0625, 0.1
4685, 1.4375, 0.0625, 0.1
4686, 1.5, 0.0625, 0.1
4687, -0.5, 0.125, 0.1
4688, -0.4375, 0.125, 0.1
4689, -0.375, 0.125, 0.1
4690, -0.3125, 0.125, 0.1
4691, -0.25, 0.125, 0.1
4692, -0.1875, 0.125, 0.1
4693, -0.125, 0.125, 0.1
4694, -0.0625, 0.125, 0.1
4695, 0, 0.125, 0.1
4696, 0.0625, 0.125, 0.1
4697, 0.125, 0.125, 0.1
4698, 0.1875, 0.125, 0.1
4699, 0.25, 0.125, 0.1
4700, 0.3125, 0.125, 0.1
4701, 0.375, 0.125, 0.1
4702, 0.4375, 0.125, 0.1
4703, 0.5, 0.125, 0.1
4704, 0.5625, 0.125, 0.1
4705, 0.625, 0.125, 0.1
4706, 0.6875, 0.125, 0.1
4707, 0.75, 0.125, 0.1
4708, 0.8125, 0.125, 0.1
4709, 0.875, 0.125, 0.1
4710, 0.9375, 0.125, 0.1
4711, 1, 0.125, 0.1
4712, 1.0625, 0.125, 0.1
4713, 1.125, 0.125, 0.1
4714, 1.1875, 0.125, 0.1
4715, 1.25, 0.125, 0.1
4716, 1.3125, 0.125, 0.1
4717, 1.375, 0.125, 0.1
4718, 1.4375, 0.125, 0.1
4719, 1.5, 0.125, 0.1
4720, -0.5, 0.1875, 0.1
4721, -0.4375, 0.1875, 0.1
4722, -0.375, 0.1875, 0.1
4723, -0.3125, 0.1875, 0.1
4724, -0.25, 0.1875, 0.1
4725, -0.1875, 0.1875, 0.1
4726, -0.125, 0.1875, 0.1
4727, -0.0625, 0.1875, 0.1
4728, 0, 0.1875, 0.1
4729, 0.0625, 0.1875, 0.1
4730, 0.125, 0.1875, 0.1
4731, 0.1875, 0.1875, 0.1
4732, 0.25, 0.1875, 0.1
4733, 0.3125, 0.1875, 0.1
4734, 0.375, 0.1875, 0.1
4735, 0.4375, 0.1875, 0.1
4736, 0.5, 0.1875, 0.1
4737, 0.5625, 0.1875, 0.1
4738, 0.625, 0.1875, 0.1
4739, 0.6875, 0.1875, 0.1
4740, 0.75, 0.1875, 0.1
4741, 0.8125, 0.1875, 0.1
4742, 0.875, 0.1875, 0.1
4743, 0.9375, 0.1875, 0.1
4744, 1, 0.1875, 0.1
4745, 1.0625, 0.1875, 0.1
4746, 1.125, 0.1875, 0.1
4747, 1.1875, 0.1875, 0.1
4748, 1.25, 0.1875, 0.1
4749, 1.3125, 0.1875, 0.1
4750, 1.375, 0.1875, 0.1
4751, 1.4375, 0.1875, 0.1
4752, 1.5, 0.1875, 0.1
4753, -0.5, 0.25, 0.1
4754, -0.4375, 0.25, 0.1
4755, -0.375, 0.25, 0.1
4756, -0.3125, 0.25, 0.1
4757, -0.25, 0.25, 0.1
4758, -0.1875, 0.25, 0.1
4759, -0.125, 0.25, 0.1
4760, -0.0625, 0.25, 0.1
4761, 0, 0.25, 0.1
4762, 0.0625, 0.25, 0.1
4763, 0.125, 0.25, 0.1
4764, 0.1875, 0.25, 0.1
4765, 0.25, 0.25, 0.1
4766, 0.3125, 0.25, 0.1
4767, 0.375, 0.25, 0.1
4768, 0.4375, 0.25, 0.1
4769, 0.5, 0.25, 0.1
4770, 0.5625, 0.25, 0.1
4771, 0.625, 0.25, 0.1
4772, 0.6875, 0.25, 0.1
4773, 0.75, 0.25, 0.1
4774, 0.8125, 0.25, 0.1
4775, 0.875, 0.25, 0.1
4776, 0.9375, 0.25, 0.1
4777, 1, 0.25, 0.1
4778, 1.0625, 0.25, 0.1
4779, 1.125, 0.25, 0.1
4780, 1.1875, 0.25, 0.1
4781, 1.25, 0.25, 0.1
4782, 1.3125, 0.25, 0.1
4783, 1.375, 0.25, 0.1
4784, 1.4375, 0.25, 0.1
4785, 1.5, 0.25, 0.1
4786, -0.5, 0.3125, 0.1
4787, -0.4375, 0.3125, 0.1
4788, -0.375, 0.3125, 0.1
4789, -0.3125, 0.3125, 0.1
4790, -0.25, 0.3125, 0.1
4791, -0.1875, 0.3125, 0.1
4792, -0.125, 0.3125, 0.1
4793, -0.0625, 0.3125, 0.1
4794, 0, 0.3125, 0.1
4795, 0.0625, 0.3125, 0.1
4796, 0.125, 0.3125, 0.1
4797, 0.1875, 0.3125, 0.1
4798, 0.25, 0.3125, 0.1
4799, 0.3125, 0.3125, 0.1
4800, 0.375, 0.3125, 0.1
4801, 0.4375, 0.3125, 0.1
4802, 0.5, 0.3125, 0.1
4803, 0.5625, 0.3125, 0.1
4804, 0.625, 0.3125, 0.1
4805, 0.6875, 0.3125, 0.1
4806, 0.75, 0.3125, 0.1
4807, 0.8125, 0.3125, 0.1
4808, 0.875, 0.3125, 0.1
4809, 0.9375, 0.3125, 0.1
4810, 1, 0.3125, 0.1
4811, 1.0625, 0.3125, 0.1
4812, 1.125, 0.3125, 0.1
4813, 1.1875, 0.3125, 0.1
4814, 1.25, 0.3125, 0.1
4815, 1.3125, 0.3125, 0.1
4816, 1.375, 0.3125, 0.1
4817, 1.4375, 0.3125, 0.1
4818, 1.5, 0.3125, 0.1
4819, -0.5, 0.375, 0.1
4820, -0.4375, 0.375, 0.1
4821, -0.375, 0.375, 0.1
4822, -0.3125, 0.375, 0.1
4823, -0.25, 0.375, 0.1
4824, -0.1875, 0.375, 0.1
4825, -0.125, 0.375, 0.1
4826, -0.0625, 0.375, 0.1
4827, 0, 0.375, 0.1
4828, 0.0625, 0.375, 0.1
4829, 0.125, 0.375, 0.1
4830, 0.1875, 0.375, 0.1
4831, 0.25, 0.375, 0.1
4832, 0.3125, 0.375, 0.1
4833, 0.375, 0.375, 0.1
4834, 0.4375, 0.375, 0.1
4835, 0.5, 0.375, 0.1
4836, 0.5625, 0.375, 0.1
4837, 0.625, 0.375, 0.1
4838, 0.6875, 0.375, 0.1
4839, 0.75, 0.375, 0.1
4840, 0.8125, 0.375, 0.1
4841, 0.875, 0.375, 0.1
4842, 0.9375, 0.375, 0.1
4843, 1, 0.375, 0.1
4844, 1.0625, 0.375, 0.1
4845, 1.125, 0.375, 0.1
4846, 1.1875, 0.375, 0.1
4847, 1.25, 0.375, 0.1
4848, 1.3125, 0.375, 0.1
4849, 1.375, 0.375, 0.1
4850, 1.4375, 0.375, 0.1
4851, 1.5, 0.375, 0.1
4852, -0.5, 0.4375, 0.1
4853, -0.4375, 0.4375, 0.1
4854, -0.375, 0.4375, 0.1
4855, -0.3125, 0.4375, 0.1
4856, -0.25, 0.4375, 0.1
4857, -0.1875, 0.4375, 0.1
4858, -0.125, 0.4375, 0.1
4859, -0.0625, 0.4375, 0.1
4860, 0, 0.4375, 0.1
4861, 0.0625, 0.4375, 0.1
4862, 0.125, 0.4375, 0.1
4863, 0.1875, 0.4375, 0.1
4864, 0.25, 0.4375, 0.1
4865, 0.3125, 0.4375, 0.1
4866, 0.375, 0.4375, 0.1
4867, 0.4375, 0.4375, 0.1
4868, 0.5, 0.4375, 0.1
4869, 0.5625, 0.4375, 0.1
4870, 0.625, 0.4375, 0.1
4871, 0.6875, 0.4375, 0.1
4872, 0.75, 0.4375, 0.1
4873, 0.8125, 0.4375, 0.1
4874, 0.875, 0.4375, 0.1
4875, 0.9375, 0.4375, 0.1
4876, 1, 0.4375, 0.1
4877, 1.0625, 0.4375, 0.1
4878, 1.125, 0.4375, 0.1
4879, 1.1875, 0.4375, 0.1
4880, 1.25, 0.4375, 0.1
4881, 1.3125, 0.4375, 0.1
4882, 1.375, 0.4375, 0.1
4883, 1.4375, 0.4375, 0.1
4884, 1.5, 0.4375, 0.1
4885, -0.5, 0.5, 0.1
4886, -0.4375, 0.5, 0.1
4887, -0.375, 0.5, 0.1
4888, -0.3125, 0.5, 0.1
4889, -0.25, 0.5, 0.1
4890, -0.1875, 0.5, 0.1
4891, -0.125, 0.5, 0.1
4892, -0.0625, 0.5, 0.1
4893, 0, 0.5, 0.1
4894, 0.0625, 0.5, 0.1
4895, 0.125, 0.5, 0.1
4896, 0.1875, 0.5, 0.1
4897, 0.25, 0.5, 0.1
4898, 0.3125, 0.5, 0.1
4899, 0.375, 0.5, 0.1
4900, 0.4375, 0.5, 0.1
4901, 0.5, 0.5, 0.1
4902, 0.5625, 0.5, 0.1
4903, 0.625, 0.5, 0.1
4904, 0.6875, 0.5, 0.1
4905, 0.75, 0.5, 0.1
4906, 0.8125, 0.5, 0.1
4907, 0.875, 0.5, 0.1
4908, 0.9375, 0.5, 0.1
4909, 1, 0.5, 0.1
4910, 1.0625, 0.5, 0.1
4911, 1.125, 0.5, 0.1
4912, 1.1875, 0.5, 0.1
4913, 1.25, 0.5, 0.1
4914, 1.3125, 0.5, 0.1
4915, 1.375, 0.5, 0.1
4916, 1.4375, 0.5, 0.1
4917, 1.5, 0.5, 0.1
4918, -0.5, 0.5625, 0.1
4919, -0.4375, 0.5625, 0.1
4920, -0.375, 0.5625, 0.1
4921, -0.3125, 0.5625, 0.1
4922, -0.25, 0.5625, 0.1
4923, -0.1875, 0.5625, 0.1
4924, -0.125, 0.5625, 0.1
4925, -0.0625, 0.5625, 0.1
4926, 0, 0.5625, 0.1
4927, 0.0625, 0.5625, 0.1
4928, 0.125, 0.5625, 0.1
4929, 0.1875, 0.5625, 0.1
4930, 0.25, 0.5625, 0.1
4931, 0.3125, 0.5625, 0.1
4932, 0.375, 0.5625, 0.1
4933, 0.4375, 0.5625, 0.1
4934, 0.5, 0.5625, 0.1
4935, 0.5625, 0.5625, 0.1
4936, 0.625, 0.5625, 0.1
4937, 0.6875, 0.5625, 0.1
4938, 0.75, 0.5625, 0.1
4939, 0.8125, 0.5625, 0.1
4940, 0.875, 0.5625, 0.1
4941, 0.9375, 0.5625, 0.1
4942, 1, 0.5625, 0.1
4943, 1.0625, 0.5625, 0.1
4944, 1.125, 0.5625, 0.1
4945, 1.1875, 0.5625, 0.1
4946, 1.25, 0.5625, 0.1
4947, 1.3125, 0.5625, 0.1
4948, 1.375, 0.5625, 0.1
4949, 1.4375, 0.5625, 0.1
4950, 1.5, 0.5625, 0.1
4951, -0.5, 0.625, 0.1
4952, -0.4375, 0.625, 0.1
4953, -0.375, 0.625, 0.1
4954, -0.3125, 0.625, 0.1
4955, -0.25, 0.625, 0.1
4956, -0.1875, 0.625, 0.1
4957, -0.125, 0.625, 0.1
4958, -0.0625, 0.625, 0.1
4959, 0, 0.625, 0.1
4960, 0.0625, 0.625, 0.1
4961, 0.125, 0.625, 0.1
4962, 0.1875, 0.625, 0.1
4963, 0.25, 0.625, 0.1
4964, 0.3125, 0.625, 0.1
4965, 0.375, 0.625, 0.1
4966, 0.4375, 0.625, 0.1
4967, 0.5, 0.625, 0.1
4968, 0.5625, 0.625, 0.1
4969, 0.625, 0.625, 0.1
4970, 0.6875, 0.625, 0.1
4971, 0.75, 0.625, 0.1
4972, 0.8125, 0.625, 0.1
4973, 0.875, 0.625, 0.1
4974, 0.9375, 0.625, 0.1
4975, 1, 0.625, 0.1
4976, 1.0625, 0.625, 0.1
4977, 1.125, 0.625, 0.1
4978, 1.1875, 0.625, 0.1
4979, 1.25, 0.625, 0.1
4980, 1.3125, 0.625, 0.1
4981, 1.375, 0.625, 0.1
4982, 1.4375, 0.625, 0.1
4983, 1.5, 0.625, 0.1
4984, -0.5, 0.6875, 0.1
4985, -0.4375, 0.6875, 0.1
4986, -0.375, 0.6875, 0.1
4987, -0.3125, 0.6875, 0.1
4988, -0.25, 0.6875, 0.1
4989, -0.1875, 0.6875, 0.1
4990, -0.125, 0.6875, 0.1
4991, -0.0625, 0.6875, 0.1
4992, 0, 0.6875, 0.1
4993, 0.0625, 0.6875, 0.1
4994, 0.125, 0.6875, 0.1
4995, 0.1875, 0.6875, 0.1
4996, 0.25, 0.6875, 0.1
4997, 0.3125, 0.6875, 0.1
4998, 0.375, 0.6875, 0.1
4999, 0.4375, 0.6875, 0.1
5000, 0.5, 0.6875, 0.1
5001, 0.5625, 0.6875, 0.1
5002, 0.625, 0.6875, 0.1
5003, 0.6875, 0.6875, 0.1
5004, 0.75, 0.6875, 0.1
5005, 0.8125, 0.6875, 0.1
5006, 0.875, 0.6875, 0.1
5007, 0.9375, 0.6875, 0.1
5008, 1, 0.6875, 0.1
5009, 1.0625, 0.6875, 0.1
5010, 1.125, 0.6875, 0.1
5011, 1.1875, 0.6875, 0.1
5012, 1.25, 0.6875, 0.1
5013, 1.3125, 0.6875, 0.1
5014, 1.375, 0.6875, 0.1
5015, 1.4375, 0.6875, 0.1
5016, 1.5, 0.6875, 0.1
5017, -0.5, 0.75, 0.1
5018, -0.4375, 0.75, 0.1
5019, -0.375, 0.75, 0.1
5020, -0.3125, 0.75, 0.1
5021, -0.25, 0.75, 0.1
5022, -0.1875, 0.75, 0.1
5023, -0.125, 0.75, 0.1
5024, -0.0625, 0.75, 0.1
5025, 0, 0.75, 0.1
5026, 0.0625, 0.75, 0.1
5027, 0.125, 0.75, 0.1
5028, 0.1875, 0.75, 0.1
5029, 0.25, 0.75, 0.1
5030, 0.3125, 0.75, 0.1
5031, 0.375, 0.75, 0.1
5032, 0.4375, 0.75, 0.1
5033, 0.5, 0.75, 0.1
5034, 0.5625, 0.75, 0.1
5035, 0.625, 0.75, 0.1
5036, 0.6875, 0.75, 0.1
5037, 0.75, 0.75, 0.1
5038, 0.8125, 0.75, 0.1
5039, 0.875, 0.75, 0.1
5040, 0.9375, 0.75, 0.1
5041, 1, 0.75, 0.1
5042, 1.0625, 0.75, 0.1
5043, 1.125, 0.75, 0.1
5044, 1.1875, 0.75, 0.1
5045, 1.25, 0.75, 0.1
5046, 1.3125, 0.75, 0.1
5047, 1.375, 0.75, 0.1
5048, 1.4375, 0.75, 0.1
5049, 1.5, 0.75, 0.1
5050, -0.5, 0.8125, 0.1
5051, -0.4375, 0.8125, 0.1
5052, -0.375, 0.8125, 0.1
5053, -0.3125, 0.8125, 0.1
5054, -0.25, 0.8125, 0.1
5055, -0.1875, 0.8125, 0.1
5056, -0.125, 0.8125, 0.1
5057, -0.0625, 0.8125, 0.1
5058, 0, 0.8125, 0.1
5059, 0.0625, 0.8125, 0.1
5060, 0.125, 0.8125, 0.1
5061, 0.1875, 0.8125, 0.1
5062, 0.25, 0.8125, 0.1
5063, 0.3125, 0.8125, 0.1
5064, 0.375, 0.8125, 0.1
5065, 0.4375, 0.8125, 0.1
5066, 0.5, 0.8125, 0.1
5067, 0.5625, 0.8125, 0.1
5068, 0.625, 0.8125, 0.1
5069, 0.6875, 0.8125, 0.1
5070, 0.75, 0.8125, 0.1
5071, 0.8125, 0.8125, 0.1
5072, 0.875, 0.8125, 0.1
5073, 0.9375, 0.8125, 0.1
5074, 1, 0.8125, 0.1
5075, 1.0625, 0.8125, 0.1
5076, 1.125, 0.8125, 0.1
5077, 1.1875, 0.8125, 0.1
5078, 1.25, 0.8125, 0.1
5079, 1.3125, 0.8125, 0.1
5080, 1.375, 0.8125, 0.1
5081, 1.4375, 0.8125, 0.1
5082, 1.5, 0.8125, 0.1
5083, -0.5, 0.875, 0.1
5084, -0.4375, 0.875, 0.1
5085, -0.375, 0.875, 0.1
5086, -0.3125, 0.875, 0.1
5087, -0.25, 0.875, 0.1
5088, -0.1875, 0.875, 0.1
5089, -0.125, 0.875, 0.1
5090, -0.0625, 0.875, 0.1
5091, 0, 0.875, 0.1
5092, 0.0625, 0.875, 0.1
5093, 0.125, 0.875, 0.1
5094, 0.1875, 0.875, 0.1
5095, 0.25, 0.875, 0.1
5096, 0.3125, 0.875, 0.1
5097, 0.375, 0.875, 0.1
5098, 0.4375, 0.875, 0.1
5099, 0.5, 0.875, 0.1
5100, 0.5625, 0.875, 0.1
5101, 0.625, 0.875, 0.1
5102, 0.6875, 0.875, 0.1
5103, 0.75, 0.875, 0.1
5104, 0.8125, 0.875, 0.1
5105, 0.875, 0.875, 0.1
5106, 0.9375, 0.875, 0.1
5107, 1, 0.875, 0.1
5108, 1.0625, 0.875, 0.1
5109, 1.125, 0.875, 0.1
5110, 1.1875, 0.875, 0.1
5111, 1.25, 0.875, 0.1
5112, 1.3125, 0.875, 0.1
5113, 1.375, 0.875, 0.1
5114, 1.4375, 0.875, 0.1
5115, 1.5, 0.875, 0.1
5116, -0.5, 0.9375, 0.1
5117, -0.4375, 0.9375, 0.1
5118, -0.375, 0.9375, 0.1
5119, -0.3125, 0.9375, 0.1
5120, -0.25, 0.9375, 0.1
5121, -0.1875, 0.9375, 0.1
5122, -0.125, 0.9375, 0.1
5123, -0.0625, 0.9375, 0.1
5124, 0, 0.9375, 0.1
5125, 0.0625, 0.9375, 0.1
5126, 0.125, 0.9375, 0.1
5127, 0.1875, 0.9375, 0.1
5128, 0.25, 0.9375, 0.1
5129, 0.3125, 0.9375, 0.1
5130, 0.375, 0.9375, 0.1
5131, 0.4375, 0.9375, 0.1
5132, 0.5, 0.9375, 0.1
5133, 0.5625, 0.9375, 0.1
5134, 0.625, 0.9375, 0.1
5135, 0.6875, 0.9375, 0.1
5136, 0.75, 0.9375, 0.1
5137, 0.8125, 0.9375, 0.1
5138, 0.875, 0.9375, 0.1
5139, 0.9375, 0.9375, 0.1
5140, 1, 0.9375, 0.1
5141, 1.0625, 0.9375, 0.1
5142, 1.125, 0.9375, 0.1
5143, 1.1875, 0.9375, 0.1
5144, 1.25, 0.9375, 0.1
5145, 1.3125, 0.9375, 0.1
5146, 1.375, 0.9375, 0.1
5147, 1.4375, 0.9375, 0.1
5148, 1.5, 0.9375, 0.1
5149, -0.5, 1, 0.1
5150, -0.4375, 1, 0.1
5151, -0.375, 1, 0.1
5152, -0.3125, 1, 0.1
5153, -0.25, 1, 0.1
5154, -0.1875, 1, 0.1
5155, -0.125, 1, 0.1
5156, -0.0625, 1, 0.1
5157, 0, 1, 0.1
5158, 0.0625, 1, 0.1
5159, 0.125, 1, 0.1
5160, 0.1875, 1, 0.1
5161, 0.25, 1, 0.1
5162, 0.3125, 1, 0.1
5163, 0.375, 1, 0.1
5164, 0.4375, 1, 0.1
5165, 0.5, 1, 0.1
5166, 0.5625, 1, 0.1
5167, 0.625, 1, 0.1
5168, 0.6875, 1, 0.1
5169, 0.75, 1, 0.1
5170, 0.8125, 1, 0.1
5171, 0.875, 1, 0.1
5172, 0.9375, 1, 0.1
5173, 1, 1, 0.1
5174, 1.0625, 1, 0.1
5175, 1.125, 1, 0.1
5176, 1.1875, 1, 0.1
5177, 1.25, 1, 0.1
5178, 1.3125, 1, 0.1
5179, 1.375, 1, 0.1
5180, 1.4375, 1, 0.1
5181, 1.5, 1, 0.1
5182, -0.5, 1.0625, 0.1
5183, -0.4375, 1.0625, 0.1
5184, -0.375, 1.0625, 0.1
5185, -0.3125, 1.0625, 0.1
5186, -0.25, 1.0625, 0.1
5187, -0.1875, 1.0625, 0.1
5188, -0.125, 1.0625, 0.1
5189, -0.0625, 1.0625, 0.1
5190, 0, 1.0625, 0.1
5191, 0.0625, 1.0625, 0.1
5192, 0.125, 1.0625, 0.1
5193, 0.1875, 1.0625, 0.1
5194, 0.25, 1.0625, 0.1
5195, 0.3125, 1.0625, 0.1
5196, 0.375, 1.0625, 0.1
5197, 0.4375, 1.0625, 0.1
5198, 0.5, 1.0625, 0.1
5199, 0.5625, 1.0625, 0.1
5200, 0.625, 1.0625, 0.1
5201, 0.6875, 1.0625, 0.1
5202, 0.75, 1.0625, 0.1
5203, 0.8125, 1.0625, 0.1
5204, 0.875, 1.0625, 0.1
5205, 0.9375, 1.0625, 0.1
5206, 1, 1.0625, 0.1
5207, 1.0625, 1.0625, 0.1
5208, 1.125, 1.0625, 0.1
5209, 1.1875, 1.0625, 0.1
5210, 1.25, 1.0625, 0.1
5211, 1.3125, 1.0625, 0.1
5212, 1.375, 1.0625, 0.1
5213, 1.4375, 1.0625, 0.1
5214, 1.5, 1.0625, 0.1
5215, -0.5, 1.125, 0.1
5216, -0.4375, 1.125, 0.1
5217, -0.375, 1.125, 0.1
5218, -0.3125, 1.125, 0.1
5219, -0.25, 1.125, 0.1
5220, -0.1875, 1.125, 0.1
5221, -0.125, 1.125, 0.1
5222, -0.0625, 1.125, 0.1
5223, 0, 1.125, 0.1
5224, 0.0625, 1.125, 0.1
5225, 0.125, 1.125, 0.1
5226, 0.1875, 1.125, 0.1
5227, 0.25, 1.125, 0.1
5228, 0.3125, 1.125, 0.1
5229, 0.375, 1.125, 0.1
5230, 0.4375, 1.125, 0.1
5231, 0.5, 1.125, 0.1
5232, 0.5625, 1.125, 0.1
5233, 0.625, 1.125, 0.1
5234, 0.6875, 1.125, 0.1
5235, 0.75, 1.125, 0.1
5236, 0.8125, 1.125, 0.1
5237, 0.875, 1.125, 0.1
5238, 0.9375, 1.125, 0.1
5239, 1, 1.125, 0.1
5240, 1.0625, 1.125, 0.1
5241, 1.125, 1.125, 0.1
5242, 1.1875, 1.125, 0.1
5243, 1.25, 1.125, 0.1
5244, 1.3125, 1.125, 0.1
5245, 1.375, 1.125, 0.1
5246, 1.4375, 1.125, 0.1
5247, 1.5, 1.125, 0.1
5248, -0.5, 1.1875, 0.1
5249, -0.4375, 1.1875, 0.1
5250, -0.375, 1.1875, 0.1
5251, -0.3125, 1.1875, 0.1
5252, -0.25, 1.1875, 0.1
5253, -0.1875, 1.1875, 0.1
5254, -0.125, 1.1875, 0.1
5255, -0.0625, 1.1875, 0.1
5256, 0, 1.1875, 0.1
5257, 0.0625, 1.1875, 0.1
5258, 0.125, 1.1875, 0.1
5259, 0.1875, 1.1875, 0.1
5260, 0.25, 1.1875, 0.1
5261, 0.3125, 1.1875, 0.1
5262, 0.375, 1.1875, 0.1
5263, 0.4375, 1.1875, 0.1
5264, 0.5, 1.1875, 0.1
5265, 0.5625, 1.1875, 0.1
5266, 0.625, 1.1875, 0.1
5267, 0.6875, 1.1875, 0.1
5268, 0.75, 1.1875, 0.1
5269, 0.8125, 1.1875, 0.1
5270, 0.875, 1.1875, 0.1
5271, 0.9375, 1.1875, 0.1
5272, 1, 1.1875, 0.1
5273, 1.0625, 1.1875, 0.1
5274, 1.125, 1.1875, 0.1
5275, 1.1875, 1.1875, 0.1
5276, 1.25, 1.1875, 0.1
5277, 1.3125, 1.1875, 0.1
5278, 1.375, 1.1875, 0.1
5279, 1.4375, 1.1875, 0.1
5280, 1.5, 1.1875, 0.1
5281, -0.5, 1.25, 0.1
5282, -0.4375, 1.25, 0.1
5283, -0.375, 1.25, 0.1
5284, -0.3125, 1.25, 0.1
5285, -0.25, 1.25, 0.1
5286, -0.1875, 1.25, 0.1
5287, -0.125, 1.25, 0.1
5288, -0.0625, 1.25, 0.1
5289, 0, 1.25, 0.1
5290, 0.0625, 1.25, 0.1
5291, 0.125, 1.25, 0.1
5292, 0.1875, 1.25, 0.1
5293, 0.25, 1.25, 0.1
5294, 0.3125, 1.25, 0.1
5295, 0.375, 1.25, 0.1
5296, 0.4375, 1.25, 0.1
5297, 0.5, 1.25, 0.1
5298, 0.5625, 1.25, 0.1
5299, 0.625, 1.25, 0.1
5300, 0.6875, 1.25, 0.1
5301, 0.75, 1.25, 0.1
5302, 0.8125, 1.25, 0.1
5303, 0.875, 1.25, 0.1
5304, 0.9375, 1.25, 0.1
5305, 1, 1.25, 0.1
5306, 1.0625, 1.25, 0.1
5307, 1.125, 1.25, 0.1
5308, 1.1875, 1.25, 0.1
5309, 1.25, 1.25, 0.1
5310, 1.3125, 1.25, 0.1
5311, 1.375, 1.25, 0.1
5312, 1.4375, 1.25, 0.1
5313, 1.5, 1.25, 0.1
5314, -0.5, 1.3125, 0.1
5315, -0.4375, 1.3125, 0.1
5316, -0.375, 1.3125, 0.1
5317, -0.3125, 1.3125, 0.1
5318, -0.25, 1.3125, 0.1
5319, -0.1875, 1.3125, 0.1
5320, -0.125, 1.3125, 0.1
5321, -0.0625, 1.3125, 0.1
5322, 0, 1.3125, 0.1
5323, 0.0625, 1.3125, 0.1
5324, 0.125, 1.3125, 0.1
5325, 0.1875, 1.3125, 0.1
5326, 0.25, 1.3125, 0.1
5327, 0.3125, 1.3125, 0.1
5328, 0.375, 1.3125, 0.1
5329, 0.4375, 1.3125, 0.1
5330, 0.5, 1.3125, 0.1
5331, 0.5625, 1.3125, 0.1
5332, 0.625, 1.3125, 0.1
5333, 0.6875, 1.3125, 0.1
5334, 0.75, 1.3125, 0.1
5335, 0.8125, 1.3125, 0.1
5336, 0.875, 1.3125, 0.1
5337, 0.9375, 1.3125, 0.1
5338, 1, 1.3125, 0.1
5339, 1.0625, 1.3125, 0.1
5340, 1.125, 1.3125, 0.1
5341, 1.1875, 1.3125, 0.1
5342, 1.25, 1.3125, 0.1
5343, 1.3125, 1.3125, 0.1
5344, 1.375, 1.3125, 0.1
5345, 1.4375, 1.3125, 0.1
5346, 1.5, 1.3125, 0.1
5347, -0.5, 1.375, 0.1
5348, -0.4375, 1.375, 0.1
5349, -0.375, 1.375, 0.1
5350, -0.3125, 1.375, 0.1
5351, -0.25, 1.375, 0.1
5352, -0.1875, 1.375, 0.1
5353, -0.125, 1.375, 0.1
5354, -0.0625, 1.375, 0.1
5355, 0, 1.375, 0.1
5356, 0.0625, 1.375, 0.1
5357, 0.125, 1.375, 0.1
5358, 0.1875, 1.375, 0.1
5359, 0.25, 1.375, 0.1
5360, 0.3125, 1.375, 0.1
5361, 0.375, 1.375, 0.1
5362, 0.4375, 1.375, 0.1
5363, 0.5, 1.375, 0.1
5364, 0.5625, 1.375, 0.1
5365, 0.625, 1.375, 0.1
5366, 0.6875, 1.375, 0.1
5367, 0.75, 1.375, 0.1
5368, 0.8125, 1.375, 0.1
5369, 0.875, 1.375, 0.1
5370, 0.9375, 1.375, 0.1
5371, 1, 1.375, 0.1
5372, 1.0625, 1.375, 0.1
5373, 1.125, 1.375, 0.1
5374, 1.1875, 1.375, 0.1
5375, 1.25, 1.375, 0.1
5376, 1.3125, 1.375, 0.1
5377, 1.375, 1.375, 0.1
5378, 1.4375, 1.375, 0.1
5379, 1.5, 1.375, 0.1
5380, -0.5, 1.4375, 0.1
5381, -0.4375, 1.4375, 0.1
5382, -0.375, 1.4375, 0.1
5383, -0.3125, 1.4375, 0.1
5384, -0.25, 1.4375, 0.1
5385, -0.1875, 1.4375, 0.1
5386, -0.125, 1.4375, 0.1
5387, -0.0625, 1.4375, 0.1
5388, 0, 1.4375, 0.1
5389, 0.0625, 1.4375, 0.1
5390, 0.125, 1.4375, 0.1
5391, 0.1875, 1.4375, 0.1
5392, 0.25, 1.4375, 0.1
5393, 0.3125, 1.4375, 0.1
5394, 0.375, 1.4375, 0.1
5395, 0.4375, 1.4375, 0.1
5396, 0.5, 1.4375, 0.1
5397, 0.5625, 1.4375, 0.1
5398, 0.625, 1.4375, 0.1
5399, 0.6875, 1.4375, 0.1
5400, 0.75, 1.4375, 0.1
5401, 0.8125, 1.4375, 0.1
5402, 0.875, 1.4375, 0.1
5403, 0.9375, 1.4375, 0.1
5404, 1, 1.4375, 0.1
5405, 1.0625, 1.4375, 0.1
5406, 1.125, 1.4375, 0.1
5407, 1.1875, 1.4375, 0.1
5408, 1.25, 1.4375, 0.1
5409, 1.3125, 1.4375, 0.1
5410, 1.375, 1.4375, 0.1
5411, 1.4375, 1.4375, 0.1
5412, 1.5, 1.4375, 0.1
5413, -0.5, 1.5, 0.1
5414, -0.4375, 1.5, 0.1
5415, -0.375, 1.5, 0.1
5416, -0.3125, 1.5, 0.1
5417, -0.25, 1.5, 0.1
5418, -0.1875, 1.5, 0.1
5419, -0.125, 1.5, 0.1
5420, -0.0625, 1.5, 0.1
5421, 0, 1.5, 0.1
5422, 0.0625, 1.5, 0.1
5423, 0.125, 1.5, 0.1
5424, 0.1875, 1.5, 0.1
5425, 0.25, 1.5, 0.1
5426, 0.3125, 1.5, 0.1
5427, 0.375, 1.5, 0.1
5428, 0.4375, 1.5, 0.1
5429, 0.5, 1.5, 0.1
5430, 0.5625, 1.5, 0.1
5431, 0.625, 1.5, 0.1
5432, 0.6875, 1.5, 0.1
5433, 0.75, 1.5, 0.1
5434, 0.8125, 1.5, 0.1
5435, 0.875, 1.5, 0.1
5436, 0.9375, 1.5, 0.1
5437, 1, 1.5, 0.1
5438, 1.0625, 1.5, 0.1
5439, 1.125, 1.5, 0.1
5440, 1.1875, 1.5, 0.1
5441, 1.25, 1.5, 0.1
5442, 1.3125, 1.5, 0.1
5443, 1.375, 1.5, 0.1
5444, 1.4375, 1.5, 0.1
5445, 1.5, 1.5, 0.1
5446, -0.5, -0.5, 0.1275
5447, -0.4375, -0.5, 0.1275
5448, -0.375, -0.5, 0.1275
5449, -0.3125, -0.5, 0.1275
5450, -0.25, -0.5, 0.1275
5451, -0.1875, -0.5, 0.1275
5452, -0.125, -0.5, 0.1275
5453, -0.0625, -0.5, 0.1275
5454, 0, -0.5, 0.1275
5455, 0.0625, -0.5, 0.1275
5456, 0.125, -0.5, 0.1275
5457, 0.1875, -0.5, 0.1275
5458, 0.25, -0.5, 0.1275
5459, 0.3125, -0.5, 0.1275
5460, 0.375, -0.5, 0.1275
5461, 0.4375, -0.5, 0.1275
5462, 0.5, -0.5, 0.1275
5463, 0.5625, -0.5, 0.1275
5464, 0.625, -0.5, 0.1275
5465, 0.6875, -0.5, 0.1275
5466, 0.75, -0.5, 0.1275
5467, 0.8125, -0.5, 0.1275
5468, 0.875, -0.5, 0.1275
5469, 0.9375, -0.5, 0.1275
5470, 1, -0.5, 0.1275
5471, 1.0625, -0.5, 0.1275
5472, 1.125, -0.5, 0.1275
5473, 1.1875, -0.5, 0.1275
5474, 1.25, -0.5, 0.1275
5475, 1.3125, -0.5, 0.1275
5476, 1.375, -0.5, 0.1275
5477, 1.4375, -0.5, 0.1275
5478, 1.5, -0.5, 0.1275
5479, -0.5, -0.4375, 0.1275
5480, -0.4375, -0.4375, 0.1275
5481, -0.375, -0.4375, 0.1275
5482, -0.3125, -0.4375, 0.1275
5483, -0.25, -0.4375, 0.1275
5484, -0.1875, -0.4375, 0.1275
5485, -0.125, -0.4375, 0.1275
5486, -0.0625, -0.4375, 0.1275
5487, 0, -0.4375, 0.1275
5488, 0.0625, -0.4375, 0.1275
5489, 0.125, -0.4375, 0.1275
5490, 0.1875, -0.4375, 0.1275
5491, 0.25, -0.4375, 0.1275
5492, 0.3125, -0.4375, 0.1275
5493, 0.375, -0.4375, 0.1275
5494, 0.4375, -0.4375, 0.1275
5495, 0.5, -0.4375, 0.1275
5496, 0.5625, -0.4375, 0.1275
5497, 0.625, -0.4375, 0.1275
5498, 0.6875, -0.4375, 0.1275
5499, 0.75, -0.4375, 0.1275
5500, 0.8125, -0.4375, 0.1275
5501, 0.875, -0.4375, 0.1275
5502, 0.9375, -0.4375, 0.1275
5503, 1, -0.4375, 0.1275
5504, 1.0625, -0.4375, 0.1275
5505, 1.125, -0.4375, 0.1275
5506, 1.1875, -0.4375, 0.1275
5507, 1.25, -0.4375, 0.1275
5508, 1.3125, -0.4375, 0.1275
5509, 1.375, -0.4375, 0.1275
5510, 1.4375, -0.4375, 0.1275
5511, 1.5, -0.4375, 0.1275
5512, -0.5, -0.375, 0.1275
5513, -0.4375, -0.375, 0.1275
5514, -0.375, -0.375, 0.1275
5515, -0.3125, -0.375, 0.1275
5516, -0.25, -0.375, 0.1275
5517, -0.1875, -0.375, 0.1275
5518, -0.125, -0.375, 0.1275
5519, -0.0625, -0.375, 0.1275
5520, 0, -0.375, 0.1275
5521, 0.0625, -0.375, 0.1275
5522, 0.125, -0.375, 0.1275
5523, 0.1875, -0.375, 0.1275
5524, 0.25, -0.375, 0.1275
5525, 0.3125, -0.375, 0.1275
5526, 0.375, -0.375, 0.1275
5527, 0.4375, -0.375, 0.1275
5528, 0.5, -0.375, 0.1275
5529, 0.5625, -0.375, 0.1275
5530, 0.625, -0.375, 0.1275
5531, 0.6875, -0.375, 0.1275
5532, 0.75, -0.375, 0.1275
5533, 0.8125, -0.375, 0.1275
5534, 0.875, -0.375, 0.1275
5535, 0.9375, -0.375, 0.1275
5536, 1, -0.375, 0.1275
5537, 1.0625, -0.375, 0.1275
5538, 1.125, -0.375, 0.1275
5539, 1.1875, -0.375, 0.1275
5540, 1.25, -0.375, 0.1275
5541, 1.3125, -0.375, 0.1275
5542, 1.375, -0.375, 0.1275
5543, 1.4375, -0.375, 0.1275
5544, 1.5, -0.375, 0.1275
5545, -0.5, -0.3125, 0.1275
5546, -0.4375, -0.3125, 0.1275
5547, -0.375, -0.3125, 0.1275
5548, -0.3125, -0.3125, 0.1275
5549, -0.25, -0.3125, 0.1275
5550, -0.1875, -0.3125, 0.1275
5551, -0.125, -0.3125, 0.1275
5552, -0.0625, -0.3125, 0.1275
5553, 0, -0.3125, 0.1275
5554, 0.0625, -0.3125, 0.1275
5555, 0.125, -0.3125, 0.1275
5556, 0.1875, -0.3125, 0.1275
5557, 0.25, -0.3125, 0.1275
5558, 0.3125, -0.3125, 0.1275
5559, 0.375, -0.3125, 0.1275
5560, 0.4375, -0.3125, 0.1275
5561, 0.5, -0.3125, 0.1275
5562, 0.5625, -0.3125, 0.1275
5563, 0.625, -0.3125, 0.1275
5564, 0.6875, -0.3125, 0.1275
5565, 0.75, -0.3125, 0.1275
5566, 0.8125, -0.3125, 0.1275
5567, 0.875, -0.3125, 0.1275
5568, 0.9375, -0.3125, 0.1275
5569, 1, -0.3125, 0.1275
5570, 1.0625, -0.3125, 0.1275
5571, 1.125, -0.3125, 0.1275
5572, 1.1875, -0.3125, 0.1275
5573, 1.25, -0.3125, 0.1275
5574, 1.3125, -0.3125, 0.1275
5575, 1.375, -0.3125, 0.1275
5576, 1.4375, -0.3125, 0.1275
5577, 1.5, -0.3125, 0.1275
5578, -0.5, -0.25, 0.1275
5579, -0.4375, -0.25, 0.1275
5580, -0.375, -0.25, 0.1275
5581, -0.3125, -0.25, 0.1275
5582, -0.25, -0.25, 0.1275
5583, -0.1875, -0.25, 0.1275
5584, -0.125, -0.25, 0.1275
5585, -0.0625, -0.25, 0.1275
5586, 0, -0.25, 0.1275
5587, 0.0625, -0.25, 0.1275
5588, 0.125, -0.25, 0.1275
5589, 0.1875, -0.25, 0.1275
5590, 0.25, -0.25, 0.1275
5591, 0.3125, -0.25, 0.1275
5592, 0.375, -0.25, 0.1275
5593, 0.4375, -0.25, 0.1275
5594, 0.5, -0.25, 0.1275
5595, 0.5625, -0.25, 0.1275
5596, 0.625, -0.25, 0.1275
5597, 0.6875, -0.25, 0.1275
5598, 0.75, -0.25, 0.1275
5599, 0.8125, -0.25, 0.1275
5600, 0.875, -0.25, 0.1275
5601, 0.9375, -0.25, 0.1275
5602, 1, -0.25, 0.1275
5603, 1.0625, -0.25, 0.1275
5604, 1.125, -0.25, 0.1275
5605, 1.1875, -0.25, 0.1275
5606, 1.25, -0.25, 0.1275
5607, 1.3125, -0.25, 0.1275
5608, 1.375, -0.25, 0.1275
5609, 1.4375, -0.25, 0.1275
5610, 1.5, -0.25, 0.1275
5611, -0.5, -0.1875, 0.1275
5612, -0.4375, -0.1875, 0.1275
5613, -0.375, -0.1875, 0.1275
5614, -0.3125, -0.1875, 0.1275
5615, -0.25, -0.1875, 0.1275
5616, -0.1875, -0.1875, 0.1275
5617, -0.125, -0.1875, 0.1275
5618, -0.0625, -0.1875, 0.1275
5619, 0, -0.1875, 0.1275
5620, 0.0625, -0.1875, 0.1275
5621, 0.125, -0.1875, 0.1275
5622, 0.1875, -0.1875, 0.1275
5623, 0.25, -0.1875, 0.1275
5624, 0.3125, -0.1875, 0.1275
5625, 0.375, -0.1875, 0.1275
5626, 0.4375, -0.1875, 0.1275
5627, 0.5, -0.1875, 0.1275
5628, 0.5625, -0.1875, 0.1275
5629, 0.625, -0.1875, 0.1275
5630, 0.6875, -0.1875, 0.1275
5631, 0.75, -0.1875, 0.1275
5632, 0.8125, -0.1875, 0.1275
5633, 0.875, -0.1875, 0.1275
5634, 0.9375, -0.1875, 0.1275
5635, 1, -0.1875, 0.1275
5636, 1.0625, -0.1875, 0.1275
5637, 1.125, -0.1875, 0.1275
5638, 1.1875, -0.1875, 0.1275
5639, 1.25, -0.1875, 0.1275
5640, 1.3125, -0.1875, 0.1275
5641, 1.375, -0.1875, 0.1275
5642, 1.4375, -0.1875, 0.1275
5643, 1.5, -0.1875, 0.1275
5644, -0.5, -0.125, 0.1275
5645, -0.4375, -0.125, 0.1275
5646, -0.375, -0.125, 0.1275
5647, -0.3125, -0.125, 0.1275
5648, -0.25, -0.125, 0.1275
5649, -0.1875, -0.125, 0.1275
5650, -0.125, -0.125, 0.1275
5651, -0.0625, -0.125, 0.1275
5652, 0, -0.125, 0.1275
5653, 0.0625, -0.125, 0.1275
5654, 0.125, -0.125, 0.1275
5655, 0.1875, -0.125, 0.1275
5656, 0.25, -0.125, 0.1275
5657, 0.3125, -0.125, 0.1275
5658, 0.375, -0.125, 0.1275
5659, 0.4375, -0.125, 0.1275
5660, 0.5, -0.125, 0.1275
5661, 0.5625, -0.125, 0.1275
5662, 0.625, -0.125, 0.1275
5663, 0.6875, -0.125, 0.1275
5664, 0.75, -0.125, 0.1275
5665, 0.8125, -0.125, 0.1275
5666, 0.875, -0.125, 0.1275
5667, 0.9375, -0.125, 0.1275
5668, 1, -0.125, 0.1275
5669, 1.0625, -0.125, 0.1275
5670, 1.125, -0.125, 0.1275
5671, 1.1875, -0.125, 0.1275
5672, 1.25, -0.125, 0.1275
5673, 1.3125, -0.125, 0.1275
5674, 1.375, -0.125, 0.1275
5675, 1.4375, -0.125, 0.1275
5676, 1.5, -0.125, 0.1275
5677, -0.5, -0.0625, 0.1275
5678, -0.4375, -0.0625, 0.1275
5679, -0.375, -0.0625, 0.1275
5680, -0.3125, -0.0625, 0.1275
5681, -0.25, -0.0625, 0.1275
5682, -0.1875, -0.0625, 0.1275
5683, -0.125, -0.0625, 0.1275
5684, -0.0625, -0.0625, 0.1275
5685, 0, -0.0625, 0.1275
5686, 0.0625, -0.0625, 0.1275
5687, 0.125, -0.0625, 0.1275
5688, 0.1875, -0.0625, 0.1275
5689, 0.25, -0.0625, 0.1275
5690, 0.3125, -0.0625, 0.1275
5691, 0.375, -0.0625, 0.1275
5692, 0.4375, -0.0625, 0.1275
5693, 0.5, -0.0625, 0.1275
5694, 0.5625, -0.0625, 0.1275
5695, 0.625, -0.0625, 0.1275
5696, 0.6875, -0.0625, 0.1275
5697, 0.75, -0.0625, 0.1275
5698, 0.8125, -0.0625, 0.1275
5699, 0.875, -0.0625, 0.1275
5700, 0.9375, -0.0625, 0.1275
5701, 1, -0.0625, 0.1275
5702, 1.0625, -0.0625, 0.1275
5703, 1.125, -0.0625, 0.1275
5704, 1.1875, -0.0625, 0.1275
5705, 1.25, -0.0625, 0.1275
5706, 1.3125, -0.0625, 0.1275
5707, 1.375, -0.0625, 0.1275
5708, 1.4375, -0.0625, 0.1275
5709, 1.5, -0.0625, 0.1275
5710, -0.5, 0, 0.1275
5711, -0.4375, 0, 0.1275
5712, -0.375, 0, 0.1275
5713, -0.3125, 0, 0.1275
5714, -0.25, 0, 0.1275
5715, -0.1875, 0, 0.1275
5716, -0.125, 0, 0.1275
5717, -0.0625, 0, 0.1275
5718, 0, 0, 0.1275
5719, 0.0625, 0, 0.1275
5720, 0.125, 0, 0.1275
5721, 0.1875, 0, 0.1275
5722, 0.25, 0, 0.1275
5723, 0.3125, 0, 0.1275
5724, 0.375, 0, 0.1275
5725, 0.4375, 0, 0.1275
5726, 0.5, 0, 0.1275
5727, 0.5625, 0, 0.1275
5728, 0.625, 0, 0.1275
5729, 0.6875, 0, 0.1275
5730, 0.75, 0, 0.1275
5731, 0.8125, 0, 0.1275
5732, 0.875, 0, 0.1275
5733, 0.9375, 0, 0.1275
5734, 1, 0, 0.1275
5735, 1.0625, 0, 0.1275
5736, 1.125, 0, 0.1275
5737, 1.1875, 0, 0.1275
5738, 1.25, 0, 0.1275
5739, 1.3125, 0, 0.1275
5740, 1.375, 0, 0.1275
5741, 1.4375, 0, 0.1275
5742, 1.5, 0, 0.1275
5743, -0.5, 0.0625, 0.1275
5744, -0.4375, 0.0625, 0.1275
5745, -0.375, 0.0625, 0.1275
5746, -0.3125, 0.0625, 0.1275
5747, -0.25, 0.0625, 0.1275
5748, -0.1875, 0.0625, 0.1275
5749, -0.125, 0.0625, 0.1275
5750, -0.0625, 0.0625, 0.1275
5751, 0, 0.0625, 0.1275
5752, 0.0625, 0.0625, 0.1275
5753, 0.125, 0.0625, 0.1275
5754, 0.1875, 0.0625, 0.1275
5755, 0.25, 0.0625, 0.1275
5756, 0.3125, 0.0625, 0.1275
5757, 0.375, 0.0625, 0.1275
5758, 0.4375, 0.0625, 0.1275
5759, 0.5, 0.0625, 0.1275
5760, 0.5625, 0.0625, 0.1275
5761, 0.625, 0.0625, 0.1275
5762, 0.6875, 0.0625, 0.1275
5763, 0.75, 0.0625, 0.1275
5764, 0.8125, 0.0625, 0.1275
5765, 0.875, 0.0625, 0.1275
5766, 0.9375, 0.0625, 0.1275
5767, 1, 0.0625, 0.1275
5768, 1.0625, 0.0625, 0.1275
5769, 1.125, 0.0625, 0.1275
5770, 1.1875, 0.0625, 0.1275
5771, 1.25, 0.0625, 0.1275
5772, 1.3125, 0.0625, 0.1275
5773, 1.375, 0.0625, 0.1275
5774, 1.4375, 0.0625, 0.1275
5775, 1.5, 0.0625, 0.1275
5776, -0.5, 0.125, 0.1275
5777, -0.4375, 0.125, 0.1275
5778, -0.375, 0.125, 0.1275
5779, -0.3125, 0.125, 0.1275
5780, -0.25, 0.125, 0.1275
5781, -0.1875, 0.125, 0.1275
5782, -0.125, 0.125, 0.1275
5783, -0.0625, 0.125, 0.1275
5784, 0, 0.125, 0.1275
5785, 0.0625, 0.125, 0.1275
5786, 0.125, 0.125, 0.1275
5787, 0.1875, 0.125, 0.1275
5788, 0.25, 0.125, 0.1275
5789, 0.3125, 0.125, 0.1275
5790, 0.375, 0.125, 0.1275
5791, 0.4375, 0.125, 0.1275
5792, 0.5, 0.125, 0.1275
5793, 0.5625, 0.125, 0.1275
5794, 0.625, 0.125, 0.1275
5795, 0.6875, 0.125, 0.1275
5796, 0.75, 0.125, 0.1275
5797, 0.8125, 0.125, 0.1275
5798, 0.875, 0.125, 0.1275
5799, 0.9375, 0.125, 0.1275
5800, 1, 0.125, 0.1275
5801, 1.0625, 0.125, 0.1275
5802, 1.125, 0.125, 0.1275
5803, 1.1875, 0.125, 0.1275
5804, 1.25, 0.125, 0.1275
5805, 1.3125, 0.125, 0.1275
5806, 1.375, 0.125, 0.1275
5807, 1.4375, 0.125, 0.1275
5808, 1.5, 0.125, 0.1275
5809, -0.5, 0.1875, 0.1275
5810, -0.4375, 0.1875, 0.1275
5811, -0.375, 0.1875, 0.1275
5812, -0.3125, 0.1875, 0.1275
5813, -0.25, 0.1875, 0.1275
5814, -0.1875, 0.1875, 0.1275
5815, -0.125, 0.1875, 0.1275
5816, -0.0625, 0.1875, 0.1275
5817, 0, 0.1875, 0.1275
5818, 0.0625, 0.1875, 0.1275
5819, 0.125, 0.1875, 0.1275
5820, 0.1875, 0.1875, 0.1275
5821, 0.25, 0.1875, 0.1275
5822, 0.3125, 0.1875, 0.1275
5823, 0.375, 0.1875, 0.1275
5824, 0.4375, 0.1875, 0.1275
5825, 0.5, 0.1875, 0.1275
5826, 0.5625, 0.1875, 0.1275
5827, 0.625, 0.1875, 0.1275
5828, 0.6875, 0.1875, 0.1275
5829, 0.75, 0.1875, 0.1275
5830, 0.8125, 0.1875, 0.1275
5831, 0.875, 0.1875, 0.1275
5832, 0.9375, 0.1875, 0.1275
5833, 1, 0.1875, 0.1275
5834, 1.0625, 0.1875, 0.1275
5835, 1.125, 0.1875, 0.1275
5836, 1.1875, 0.1875, 0.1275
5837, 1.25, 0.1875, 0.1275
5838, 1.3125, 0.1875, 0.1275
5839, 1.375, 0.1875, 0.1275
5840, 1.4375, 0.1875, 0.1275
5841, 1.5, 0.1875, 0.1275
5842, -0.5, 0.25, 0.1275
5843, -0.4375, 0.25, 0.1275
5844, -0.375, 0.25, 0.1275
5845, -0.3125, 0.25, 0.1275
5846, -0.25, 0.25, 0.1275
5847, -0.1875, 0.25, 0.1275
5848, -0.125, 0.25, 0.1275
5849, -0.0625, 0.25, 0.1275
5850, 0, 0.25, 0.1275
5851, 0.0625, 0.25, 0.1275
5852, 0.125, 0.25, 0.1275
5853, 0.1875, 0.25, 0.1275
5854, 0.25, 0.25, 0.1275
5855, 0.3125, 0.25, 0.1275
5856, 0.375, 0.25, 0.1275
5857, 0.4375, 0.25, 0.1275
5858, 0.5, 0.25, 0.1275
5859, 0.5625, 0.25, 0.1275
5860, 0.625, 0.25, 0.1275
5861, 0.6875, 0.25, 0.1275
5862, 0.75, 0.25, 0.1275
5863, 0.8125, 0.25, 0.1275
5864, 0.875, 0.25, 0.1275
5865, 0.9375, 0.25, 0.1275
5866, 1, 0.25, 0.1275
5867, 1.0625, 0.25, 0.1275
5868, 1.125, 0.25, 0.1275
5869, 1.1875, 0.25, 0.1275
5870, 1.25, 0.25, 0.1275
5871, 1.3125, 0.25, 0.1275
5872, 1.375, 0.25, 0.1275
5873, 1.4375, 0.25, 0.1275
5874, 1.5, 0.25, 0.1275
5875, -0.5, 0.3125, 0.1275
5876, -0.4375, 0.3125, 0.1275
5877, -0.375, 0.3125, 0.1275
5878, -0.3125, 0.3125, 0.1275
5879, -0.25, 0.3125, 0.1275
5880, -0.1875, 0.3125, 0.1275
5881, -0.125, 0.3125, 0.1275
5882, -0.0625, 0.3125, 0.1275
5883, 0, 0.3125, 0.1275
5884, 0.0625, 0.3125, 0.1275
5885, 0.125, 0.3125, 0.1275
5886, 0.1875, 0.3125, 0.1275
5887, 0.25, 0.3125, 0.1275
5888, 0.3125, 0.3125, 0.1275
5889, 0.375, 0.3125, 0.1275
5890, 0.4375, 0.3125, 0.1275
5891, 0.5, 0.3125, 0.1275
5892, 0.5625, 0.3125, 0.1275
5893, 0.625, 0.3125, 0.1275
5894, 0.6875, 0.3125, 0.1275
5895, 0.75, 0.3125, 0.1275
5896, 0.8125, 0.3125, 0.1275
5897, 0.875, 0.3125, 0.1275
5898, 0.9375, 0.3125, 0.1275
5899, 1, 0.3125, 0.1275
5900, 1.0625, 0.3125, 0.1275
5901, 1.125, 0.3125, 0.1275
5902, 1.1875, 0.3125, 0.1275
5903, 1.25, 0.3125, 0.1275
5904, 1.3125, 0.3125, 0.1275
5905, 1.375, 0.3125, 0.1275
5906, 1.4375, 0.3125, 0.1275
5907, 1.5, 0.3125, 0.1275
5908, -0.5, 0.375, 0.1275
5909, -0.4375, 0.375, 0.1275
5910, -0.375, 0.375, 0.1275
5911, -0.3125, 0.375, 0.1275
5912, -0.25, 0.375, 0.1275
5913, -0.1875, 0.375, 0.1275
5914, -0.125, 0.375, 0.1275
5915, -0.0625, 0.375, 0.1275
5916, 0, 0.375, 0.1275
5917, 0.0625, 0.375, 0.1275
5918, 0.125, 0.375, 0.1275
5919, 0.1875, 0.375, 0.1275
5920, 0.25, 0.375, 0.1275
5921, 0.3125, 0.375, 0.1275
5922, 0.375, 0.375, 0.1275
5923, 0.4375, 0.375, 0.1275
5924, 0.5, 0.375, 0.1275
5925, 0.5625, 0.375, 0.1275
5926, 0.625, 0.375, 0.1275
5927, 0.6875, 0.375, 0.1275
5928, 0.75, 0.375, 0.1275
5929, 0.8125, 0.375, 0.1275
5930, 0.875, 0.375, 0.1275
5931, 0.9375, 0.375, 0.1275
5932, 1, 0.375, 0.1275
5933, 1.0625, 0.375, 0.1275
5934, 1.125, 0.375, 0.1275
5935, 1.1875, 0.375, 0.1275
5936, 1.25, 0.375, 0.1275
5937, 1.3125, 0.375, 0.1275
5938, 1.375, 0.375, 0.1275
5939, 1.4375, 0.375, 0.1275
5940, 1.5, 0.375, 0.1275
5941, -0.5, 0.4375, 0.1275
5942, -0.4375, 0.4375, 0.1275
5943, -0.375, 0.4375, 0.1275
5944, -0.3125, 0.4375, 0.1275
5945, -0.25, 0.4375, 0.1275
5946, -0.1875, 0.4375, 0.1275
5947, -0.125, 0.4375, 0.1275
5948, -0.0625, 0.4375, 0.1275
5949, 0, 0.4375, 0.1275
5950, 0.0625, 0.4375, 0.1275
5951, 0.125, 0.4375, 0.1275
5952, 0.1875, 0.4375, 0.1275
5953, 0.25, 0.4375, 0.1275
5954, 0.3125, 0.4375, 0.1275
5955, 0.375, 0.4375, 0.1275
5956, 0.4375, 0.4375, 0.1275
5957, 0.5, 0.4375, 0.1275
5958, 0.5625, 0.4375, 0.1275
5959, 0.625, 0.4375, 0.1275
5960, 0.6875, 0.4375, 0.1275
5961, 0.75, 0.4375, 0.1275
5962, 0.8125, 0.4375, 0.1275
5963, 0.875, 0.4375, 0.1275
5964, 0.9375, 0.4375, 0.1275
5965, 1, 0.4375, 0.1275
5966, 1.0625, 0.4375, 0.1275
5967, 1.125, 0.4375, 0.1275
5968, 1.1875, 0.4375, 0.1275
5969, 1.25, 0.4375, 0.1275
5970, 1.3125, 0.4375, 0.1275
5971, 1.375, 0.4375, 0.1275
5972, 1.4375, 0.4375, 0.1275
5973, 1.5, 0.4375, 0.1275
5974, -0.5, 0.5, 0.1275
5975, -0.4375, 0.5, 0.1275
5976, -0.375, 0.5, 0.1275
5977, -0.3125, 0.5, 0.1275
5978, -0.25, 0.5, 0.1275
5979, -0.1875, 0.5, 0.1275
5980, -0.125, 0.5, 0.1275
5981, -0.0625, 0.5, 0.1275
5982, 0, 0.5, 0.1275
5983, 0.0625, 0.5, 0.1275
5984, 0.125, 0.5, 0.1275
5985, 0.1875, 0.5, 0.1275
5986, 0.25, 0.5, 0.1275
5987, 0.3125, 0.5, 0.1275
5988, 0.375, 0.5, 0.1275
5989, 0.4375, 0.5, 0.1275
5990, 0.5, 0.5, 0.1275
5991, 0.5625, 0.5, 0.1275
5992, 0.625, 0.5, 0.1275
5993, 0.6875, 0.5, 0.1275
5994, 0.75, 0.5, 0.1275
5995, 0.8125, 0.5, 0.1275
5996, 0.875, 0.5, 0.1275
5997, 0.9375, 0.5, 0.1275
5998, 1, 0.5, 0.1275
5999, 1.0625, 0.5, 0.1275
6000, 1.125, 0.5, 0.1275
6001, 1.1875, 0.5, 0.1275
6002, 1.25, 0.5, 0.1275
6003, 1.3125, 0.5, 0.1275
6004, 1.375, 0.5, 0.1275
6005, 1.4375, 0.5, 0.1275
6006, 1.5, 0.5, 0.1275
6007, -0.5, 0.5625, 0.1275
6008, -0.4375, 0.5625, 0.1275
6009, -0.375, 0.5625, 0.1275
6010, -0.3125, 0.5625, 0.1275
6011, -0.25, 0.5625, 0.1275
6012, -0.1875, 0.5625, 0.1275
6013, -0.125, 0.5625, 0.1275
6014, -0.0625, 0.5625, 0.1275
6015, 0, 0.5625, 0.1275
6016, 0.0625, 0.5625, 0.1275
6017, 0.125, 0.5625, 0.1275
6018, 0.1875, 0.5625, 0.1275
6019, 0.25, 0.5625, 0.1275
6020, 0.3125, 0.5625, 0.1275
6021, 0.375, 0.5625, 0.1275
6022, 0.4375, 0.5625, 0.1275
6023, 0.5, 0.5625, 0.1275
6024, 0.5625, 0.5625, 0.1275
6025, 0.625, 0.5625, 0.1275
6026, 0.6875, 0.5625, 0.1275
6027, 0.75, 0.5625, 0.1275
6028, 0.8125, 0.5625, 0.1275
6029, 0.875, 0.5625, 0.1275
6030, 0.9375, 0.5625, 0.1275
6031, 1, 0.5625, 0.1275
6032, 1.0625, 0.5625, 0.1275
6033, 1.125, 0.5625, 0.1275
6034, 1.1875, 0.5625, 0.1275
6035, 1.25, 0.5625, 0.1275
6036, 1.3125, 0.5625, 0.1275
6037, 1.375, 0.5625, 0.1275
6038, 1.4375, 0.5625, 0.1275
6039, 1.5, 0.5625, 0.1275
6040, -0.5, 0.625, 0.1275
6041, -0.4375, 0.625, 0.1275
6042, -0.375, 0.625, 0.1275
6043, -0.3125, 0.625, 0.1275
6044, -0.25, 0.625, 0.1275
6045, -0.1875, 0.625, 0.1275
6046, -0.125, 0.625, 0.1275
6047, -0.0625, 0.625, 0.1275
6048, 0, 0.625, 0.1275
6049, 0.0625, 0.625, 0.1275
6050, 0.125, 0.625, 0.1275
6051, 0.1875, 0.625, 0.1275
6052, 0.25, 0.625, 0.1275
6053, 0.3125, 0.625, 0.1275
6054, 0.375, 0.625, 0.1275
6055, 0.4375, 0.625, 0.1275
6056, 0.5, 0.625, 0.1275
6057, 0.5625, 0.625, 0.1275
6058, 0.625, 0.625, 0.1275
6059, 0.6875, 0.625, 0.1275
6060, 0.75, 0.625, 0.1275
6061, 0.8125, 0.625, 0.1275
6062, 0.875, 0.625, 0.1275
6063, 0.9375, 0.625, 0.1275
6064, 1, 0.625, 0.1275
6065, 1.0625, 0.625, 0.1275
6066, 1.125, 0.625, 0.1275
6067, 1.1875, 0.625, 0.1275
6068, 1.25, 0.625, 0.1275
6069, 1.3125, 0.625, 0.1275
6070, 1.375, 0.625, 0.1275
6071, 1.4375, 0.625, 0.1275
6072, 1.5, 0.625, 0.1275
6073, -0.5, 0.6875, 0.1275
6074, -0.4375, 0.6875, 0.1275
6075, -0.375, 0.6875, 0.1275
6076, -0.3125, 0.6875, 0.1275
6077, -0.25, 0.6875, 0.1275
6078, -0.1875, 0.6875, 0.1275
6079, -0.125, 0.6875, 0.1275
6080, -0.0625, 0.6875, 0.1275
6081, 0, 0.6875, 0.1275
6082, 0.0625, 0.6875, 0.1275
6083, 0.125, 0.6875, 0.1275
6084, 0.1875, 0.6875, 0.1275
6085, 0.25, 0.6875, 0.1275
6086, 0.3125, 0.6875, 0.1275
6087, 0.375, 0.6875, 0.1275
6088, 0.4375, 0.6875, 0.1275
6089, 0.5, 0.6875, 0.1275
6090, 0.5625, 0.6875, 0.1275
6091, 0.625, 0.6875, 0.1275
6092, 0.6875, 0.6875, 0.1275
6093, 0.75, 0.6875, 0.1275
6094, 0.8125, 0.6875, 0.1275
6095, 0.875, 0.6875, 0.1275
6096, 0.9375, 0.6875, 0.1275
6097, 1, 0.6875, 0.1275
6098, 1.0625, 0.6875, 0.1275
6099, 1.125, 0.6875, 0.1275
6100, 1.1875, 0.6875, 0.1275
6101, 1.25, 0.6875, 0.1275
6102, 1.3125, 0.6875, 0.1275
6103, 1.375, 0.6875, 0.1275
6104, 1.4375, 0.6875, 0.1275
6105, 1.5, 0.6875, 0.1275
6106, -0.5, 0.75, 0.1275
6107, -0.4375, 0.75, 0.1275
6108, -0.375, 0.75, 0.1275
6109, -0.3125, 0.75, 0.1275
6110, -0.25, 0.75, 0.1275
6111, -0.1875, 0.75, 0.1275
6112, -0.125, 0.75, 0.1275
6113, -0.0625, 0.75, 0.1275
6114, 0, 0.75, 0.1275
6115, 0.0625, 0.75, 0.1275
6116, 0.125, 0.75, 0.1275
6117, 0.1875, 0.75, 0.1275
6118, 0.25, 0.75, 0.1275
6119, 0.3125, 0.75, 0.1275
6120, 0.375, 0.75, 0.1275
6121, 0.4375, 0.75, 0.1275
6122, 0.5, 0.75, 0.1275
6123, 0.5625, 0.75, 0.1275
6124, 0.625, 0.75, 0.1275
6125, 0.6875, 0.75, 0.1275
6126, 0.75, 0.75, 0.1275
6127, 0.8125, 0.75, 0.1275
6128, 0.875, 0.75, 0.1275
6129, 0.9375, 0.75, 0.1275
6130, 1, 0.75, 0.1275
6131, 1.0625, 0.75, 0.1275
6132, 1.125, 0.75, 0.1275
6133, 1.1875, 0.75, 0.1275
6134, 1.25, 0.75, 0.1275
6135, 1.3125, 0.75, 0.1275
6136, 1.375, 0.75, 0.1275
6137, 1.4375, 0.75, 0.1275
6138, 1.5, 0.75, 0.1275
6139, -0.5, 0.8125, 0.1275
6140, -0.4375, 0.8125, 0.1275
6141, -0.375, 0.8125, 0.1275
6142, -0.3125, 0.8125, 0.1275
6143, -0.25, 0.8125, 0.1275
6144, -0.1875, 0.8125, 0.1275
6145, -0.125, 0.8125, 0.1275
6146, -0.0625, 0.8125, 0.1275
6147, 0, 0.8125, 0.1275
6148, 0.0625, 0.8125, 0.1275
6149, 0.125, 0.8125, 0.1275
6150, 0.1875, 0.8125, 0.1275
6151, 0.25, 0.8125, 0.1275
6152, 0.3125, 0.8125, 0.1275
6153, 0.375, 0.8125, 0.1275
6154, 0.4375, 0.8125, 0.1275
6155, 0.5, 0.8125, 0.1275
6156, 0.5625, 0.8125, 0.1275
6157, 0.625, 0.8125, 0.1275
6158, 0.6875, 0.8125, 0.1275
6159, 0.75, 0.8125, 0.1275
6160, 0.8125, 0.8125, 0.1275
6161, 0.875, 0.8125, 0.1275
6162, 0.9375, 0.8125, 0.1275
6163, 1, 0.8125, 0.1275
6164, 1.0625, 0.8125, 0.1275
6165, 1.125, 0.8125, 0.1275
6166, 1.1875, 0.8125, 0.1275
6167, 1.25, 0.8125, 0.1275
6168, 1.3125, 0.8125, 0.1275
6169, 1.375, 0.8125, 0.1275
6170, 1.4375, 0.8125, 0.1275
6171, 1.5, 0.8125, 0.1275
6172, -0.5, 0.875, 0.1275
6173, -0.4375, 0.875, 0.1275
6174, -0.375, 0.875, 0.1275
6175, -0.3125, 0.875, 0.1275
6176, -0.25, 0.875, 0.1275
6177, -0.1875, 0.875, 0.1275
6178, -0.125, 0.875, 0.1275
6179, -0.0625, 0.875, 0.1275
6180, 0, 0.875, 0.1275
6181, 0.0625, 0.875, 0.1275
6182, 0.125, 0.875, 0.1275
6183, 0.1875, 0.875, 0.1275
6184, 0.25, 0.875, 0.1275
6185, 0.3125, 0.875, 0.1275
6186, 0.375, 0.875, 0.1275
6187, 0.4375, 0.875, 0.1275
6188, 0.5, 0.875, 0.1275
6189, 0.5625, 0.875, 0.1275
6190, 0.625, 0.875, 0.1275
6191, 0.6875, 0.875, 0.1275
6192, 0.75, 0.875, 0.1275
6193, 0.8125, 0.875, 0.1275
6194, 0.875, 0.875, 0.1275
6195, 0.9375, 0.875, 0.1275
6196, 1, 0.875, 0.1275
6197, 1.0625, 0.875, 0.1275
6198, 1.125, 0.875, 0.1275
6199, 1.1875, 0.875, 0.1275
6200, 1.25, 0.875, 0.1275
6201, 1.3125, 0.875, 0.1275
6202, 1.375, 0.875, 0.1275
6203, 1.4375, 0.875, 0.1275
6204, 1.5, 0.875, 0.1275
6205, -0.5, 0.9375, 0.1275
6206, -0.4375, 0.9375, 0.1275
6207, -0.375, 0.9375, 0.1275
6208, -0.3125, 0.9375, 0.1275
6209, -0.25, 0.9375, 0.1275
6210, -0.1875, 0.9375, 0.1275
6211, -0.125, 0.9375, 0.1275
6212, -0.0625, 0.9375, 0.1275
6213, 0, 0.9375, 0.1275
6214, 0.0625, 0.9375, 0.1275
6215, 0.125, 0.9375, 0.1275
6216, 0.1875, 0.9375, 0.1275
6217, 0.25, 0.9375, 0.1275
6218, 0.3125, 0.9375, 0.1275
6219, 0.375, 0.9375, 0.1275
6220, 0.4375, 0.9375, 0.1275
6221, 0.5, 0.9375, 0.1275
6222, 0.5625, 0.9375, 0.1275
6223, 0.625, 0.9375, 0.1275
6224, 0.6875, 0.9375, 0.1275
6225, 0.75, 0.9375, 0.1275
6226, 0.8125, 0.9375, 0.1275
6227, 0.875, 0.9375, 0.1275
6228, 0.9375, 0.9375, 0.1275
6229, 1, 0.9375, 0.1275
6230, 1.0625, 0.9375, 0.1275
6231, 1.125, 0.9375, 0.1275
6232, 1.1875, 0.9375, 0.1275
6233, 1.25, 0.9375, 0.1275
6234, 1.3125, 0.9375, 0.1275
6235, 1.375, 0.9375, 0.1275
6236, 1.4375, 0.9375, 0.1275
6237, 1.5, 0.9375, 0.1275
6238, -0.5, 1, 0.1275
6239, -0.4375, 1, 0.1275
6240, -0.375, 1, 0.1275
6241, -0.3125, 1, 0.1275
6242, -0.25, 1, 0.1275
6243, -0.1875, 1, 0.1275
6244, -0.125, 1, 0.1275
6245, -0.0625, 1, 0.1275
6246, 0, 1, 0.1275
6247, 0.0625, 1, 0.1275
6248, 0.125, 1, 0.1275
6249, 0.1875, 1, 0.1275
6250, 0.25, 1, 0.1275
6251, 0.3125, 1, 0.1275
6252, 0.375, 1, 0.1275
6253, 0.4375, 1, 0.1275
6254, 0.5, 1, 0.1275
6255, 0.5625, 1, 0.1275
6256, 0.625, 1, 0.1275
6257, 0.6875, 1, 0.1275
6258, 0.75, 1, 0.1275
6259, 0.8125, 1, 0.1275
6260, 0.875, 1, 0.1275
6261, 0.9375, 1, 0.1275
6262, 1, 1, 0.1275
6263, 1.0625, 1, 0.1275
6264, 1.125, 1, 0.1275
6265, 1.1875, 1, 0.1275
6266, 1.25, 1, 0.1275
6267, 1.3125, 1, 0.1275
6268, 1.375, 1, 0.1275
6269, 1.4375, 1, 0.1275
6270, 1.5, 1, 0.1275
6271, -0.5, 1.0625, 0.1275
6272, -0.4375, 1.0625, 0.1275
6273, -0.375, 1.0625, 0.1275
6274, -0.3125, 1.0625, 0.1275
6275, -0.25, 1.0625, 0.1275
6276, -0.1875, 1.0625, 0.1275
6277, -0.125, 1.0625, 0.1275
6278, -0.0625, 1.0625, 0.1275
6279, 0, 1.0625, 0.1275
6280, 0.0625, 1.0625, 0.1275
6281, 0.125, 1.0625, 0.1275
6282, 0.1875, 1.0625, 0.1275
6283, 0.25, 1.0625, 0.1275
6284, 0.3125, 1.0625, 0.1275
6285, 0.375, 1.0625, 0.1275
6286, 0.4375, 1.0625, 0.1275
6287, 0.5, 1.0625, 0.1275
6288, 0.5625, 1.0625, 0.1275
6289, 0.625, 1.0625, 0.1275
6290, 0.6875, 1.0625, 0.1275
6291, 0.75, 1.0625, 0.1275
6292, 0.8125, 1.0625, 0.1275
6293, 0.875, 1.0625, 0.1275
6294, 0.9375, 1.0625, 0.1275
6295, 1, 1.0625, 0.1275
6296, 1.0625, 1.0625, 0.1275
6297, 1.125, 1.0625, 0.1275
6298, 1.1875, 1.0625, 0.1275
6299, 1.25, 1.0625, 0.1275
6300, 1.3125, 1.0625, 0.1275
6301, 1.375, 1.0625, 0.1275
6302, 1.4375, 1.0625, 0.1275
6303, 1.5, 1.0625, 0.1275
6304, -0.5, 1.125, 0.1275
6305, -0.4375, 1.125, 0.1275
6306, -0.375, 1.125, 0.1275
6307, -0.3125, 1.125, 0.1275
6308, -0.25, 1.125, 0.1275
6309, -0.1875, 1.125, 0.1275
6310, -0.125, 1.125, 0.1275
6311, -0.0625, 1.125, 0.1275
6312, 0, 1.125, 0.1275
6313, 0.0625, 1.125, 0.1275
6314, 0.125, 1.125, 0.1275
6315, 0.1875, 1.125, 0.1275
6316, 0.25, 1.125, 0.1275
6317, 0.3125, 1.125, 0.1275
6318, 0.375, 1.125, 0.1275
6319, 0.4375, 1.125, 0.1275
6320, 0.5, 1.125, 0.1275
6321, 0.5625, 1.125, 0.1275
6322, 0.625, 1.125, 0.1275
6323, 0.6875, 1.125, 0.1275
6324, 0.75, 1.125, 0.1275
6325, 0.8125, 1.125, 0.1275
6326, 0.875, 1.125, 0.1275
6327, 0.9375, 1.125, 0.1275
6328, 1, 1.125, 0.1275
6329, 1.0625, 1.125, 0.1275
6330, 1.125, 1.125, 0.1275
6331, 1.1875, 1.125, 0.1275
6332, 1.25, 1.125, 0.1275
6333, 1.3125, 1.125, 0.1275
6334, 1.375, 1.125, 0.1275
6335, 1.4375, 1.125, 0.1275
6336, 1.5, 1.125, 0.1275
6337, -0.5, 1.1875, 0.1275
6338, -0.4375, 1.1875, 0.1275
6339, -0.375, 1.1875, 0.1275
6340, -0.3125, 1.1875, 0.1275
6341, -0.25, 1.1875, 0.1275
6342, -0.1875, 1.1875, 0.1275
6343, -0.125, 1.1875, 0.1275
6344, -0.0625, 1.1875, 0.1275
6345, 0, 1.1875, 0.1275
6346, 0.0625, 1.1875, 0.1275
6347, 0.125, 1.1875, 0.1275
6348, 0.1875, 1.1875, 0.1275
6349, 0.25, 1.1875, 0.1275
6350, 0.3125, 1.1875, 0.1275
6351, 0.375, 1.1875, 0.1275
6352, 0.4375, 1.1875, 0.1275
6353, 0.5, 1.1875, 0.1275
6354, 0.5625, 1.1875, 0.1275
6355, 0.625, 1.1875, 0.1275
6356, 0.6875, 1.1875, 0.1275
6357, 0.75, 1.1875, 0.1275
6358, 0.8125, 1.1875, 0.1275
6359, 0.875, 1.1875, 0.1275
6360, 0.9375, 1.1875, 0.1275
6361, 1, 1.1875, 0.1275
6362, 1.0625, 1.1875, 0.1275
6363, 1.125, 1.1875, 0.1275
6364, 1.1875, 1.1875, 0.1275
6365, 1.25, 1.1875, 0.1275
6366, 1.3125, 1.1875, 0.1275
6367, 1.375, 1.1875, 0.1275
6368, 1.4375, 1.1875, 0.1275
6369, 1.5, 1.1875, 0.1275
6370, -0.5, 1.25, 0.1275
6371, -0.4375, 1.25, 0.1275
6372, -0.375, 1.25, 0.1275
6373, -0.3125, 1.25, 0.1275
6374, -0.25, 1.25, 0.1275
6375, -0.1875, 1.25, 0.1275
6376, -0.125, 1.25, 0.1275
6377, -0.0625, 1.25, 0.1275
6378, 0, 1.25, 0.1275
6379, 0.0625, 1.25, 0.1275
6380, 0.125, 1.25, 0.1275
6381, 0.1875, 1.25, 0.1275
6382, 0.25, 1.25, 0.1275
6383, 0.3125, 1.25, 0.1275
6384, 0.375, 1.25, 0.1275
6385, 0.4375, 1.25, 0.1275
6386, 0.5, 1.25, 0.1275
6387, 0.5625, 1.25, 0.1275
6388, 0.625, 1.25, 0.1275
6389, 0.6875, 1.25, 0.1275
6390, 0.75, 1.25, 0.1275
6391, 0.8125, 1.25, 0.1275
6392, 0.875, 1.25, 0.1275
6393, 0.9375, 1.25, 0.1275
6394, 1, 1.25, 0.1275
6395, 1.0625, 1.25, 0.1275
6396, 1.125, 1.25, 0.1275
6397, 1.1875, 1.25, 0.1275
6398, 1.25, 1.25, 0.1275
6399, 1.3125, 1.25, 0.1275
6400, 1.375, 1.25, 0.1275
6401, 1.4375, 1.25, 0.1275
6402, 1.5, 1.25, 0.1275
6403, -0.5, 1.3125, 0.1275
6404, -0.4375, 1.3125, 0.1275
6405, -0.375, 1.3125, 0.1275
6406, -0.3125, 1.3125, 0.1275
6407, -0.25, 1.3125, 0.1275
6408, -0.1875, 1.3125, 0.1275
6409, -0.125, 1.3125, 0.1275
6410, -0.0625, 1.3125, 0.1275
6411, 0, 1.3125, 0.1275
6412, 0.0625, 1.3125, 0.1275
6413, 0.125, 1.3125, 0.1275
6414, 0.1875, 1.3125, 0.1275
6415, 0.25, 1.3125, 0.1275
6416, 0.3125, 1.3125, 0.1275
6417, 0.375, 1.3125, 0.1275
6418, 0.4375, 1.3125, 0.1275
6419, 0.5, 1.3125, 0.1275
6420, 0.5625, 1.3125, 0.1275
6421, 0.625, 1.3125, 0.1275
6422, 0.6875, 1.3125, 0.1275
6423, 0.75, 1.3125, 0.1275
6424, 0.8125, 1.3125, 0.1275
6425, 0.875, 1.3125, 0.1275
6426, 0.9375, 1.3125, 0.1275
6427, 1, 1.3125, 0.1275
6428, 1.0625, 1.3125, 0.1275
6429, 1.125, 1.3125, 0.1275
6430, 1.1875, 1.3125, 0.1275
6431, 1.25, 1.3125, 0.1275
6432, 1.3125, 1.3125, 0.1275
6433, 1.375, 1.3125, 0.1275
6434, 1.4375, 1.3125, 0.1275
6435, 1.5, 1.3125, 0.1275
6436, -0.5, 1.375, 0.1275
6437, -0.4375, 1.375, 0.1275
6438, -0.375, 1.375, 0.1275
6439, -0.3125, 1.375, 0.1275
6440, -0.25, 1.375, 0.1275
6441, -0.1875, 1.375, 0.1275
6442, -0.125, 1.375, 0.1275
6443, -0.0625, 1.375, 0.1275
6444, 0, 1.375, 0.1275
6445, 0.0625, 1.375, 0.1275
6446, 0.125, 1.375, 0.1275
6447, 0.1875, 1.375, 0.1275
6448, 0.25, 1.375, 0.1275
6449, 0.3125, 1.375, 0.1275
6450, 0.375, 1.375, 0.1275
6451, 0.4375, 1.375, 0.1275
6452, 0.5, 1.375, 0.1275
6453, 0.5625, 1.375, 0.1275
6454, 0.625, 1.375, 0.1275
6455, 0.6875, 1.375, 0.1275
6456, 0.75, 1.375, 0.1275
6457, 0.8125, 1.375, 0.1275
6458, 0.875, 1.375, 0.1275
6459, 0.9375, 1.375, 0.1275
6460, 1, 1.375, 0.1275
6461, 1.0625, 1.375, 0.1275
6462, 1.125, 1.375, 0.1275
6463, 1.1875, 1.375, 0.1275
6464, 1.25, 1.375, 0.1275
6465, 1.3125, 1.375, 0.1275
6466, 1.375, 1.375, 0.1275
6467, 1.4375, 1.375, 0.1275
6468, 1.5, 1.375, 0.1275
6469, -0.5, 1.4375, 0.1275
6470, -0.4375, 1.4375, 0.1275
6471, -0.375, 1.4375, 0.1275
6472, -0.3125, 1.4375, 0.1275
6473, -0.25, 1.4375, 0.1275
6474, -0.1875, 1.4375, 0.1275
6475, -0.125, 1.4375, 0.1275
6476, -0.0625, 1.4375, 0.1275
6477, 0, 1.4375, 0.1275
6478, 0.0625, 1.4375, 0.1275
6479, 0.125, 1.4375, 0.1275
6480, 0.1875, 1.4375, 0.1275
6481, 0.25, 1.4375, 0.1275
6482, 0.3125, 1.4375, 0.1275
6483, 0.375, 1.4375, 0.1275
6484, 0.4375, 1.4375, 0.1275
6485, 0.5, 1.4375, 0.1275
6486, 0.5625, 1.4375, 0.1275
6487, 0.625, 1.4375, 0.1275
6488, 0.6875, 1.4375, 0.1275
6489, 0.75, 1.4375, 0.1275
6490, 0.8125, 1.4375, 0.1275
6491, 0.875, 1.4375, 0.1275
6492, 0.9375, 1.4375, 0.1275
6493, 1, 1.4375, 0.1275
6494, 1.0625, 1.4375, 0.1275
6495, 1.125, 1.4375, 0.1275
6496, 1.1875, 1.4375, 0.1275
6497, 1.25, 1.4375, 0.1275
6498, 1.3125, 1.4375, 0.1275
6499, 1.375, 1.4375, 0.1275
6500, 1.4375, 1.4375, 0.1275
6501, 1.5, 1.4375, 0.1275
6502, -0.5, 1.5, 0.1275
6503, -0.4375, 1.5, 0.1275
6504, -0.375, 1.5, 0.1275
6505, -0.3125, 1.5, 0.1275
6506, -0.25, 1.5, 0.1275
6507, -0.1875, 1.5, 0.1275
6508, -0.125, 1.5, 0.1275
6509, -0.0625, 1.5, 0.1275
6510, 0, 1.5, 0.1275
6511, 0.0625, 1.5, 0.1275
6512, 0.125, 1.5, 0.1275
6513, 0.1875, 1.5, 0.1275
6514, 0.25, 1.5, 0.1275
6515, 0.3125, 1.5, 0.1275
6516, 0.375, 1.5, 0.1275
6517, 0.4375, 1.5, 0.1275
6518, 0.5, 1.5, 0.1275
6519, 0.5625, 1.5, 0.1275
6520, 0.625, 1.5, 0.1275
6521, 0.6875, 1.5, 0.1275
6522, 0.75, 1.5, 0.1275
6523, 0.8125, 1.5, 0.1275
6524, 0.875, 1.5, 0.1275
6525, 0.9375, 1.5, 0.1275
6526, 1, 1.5, 0.1275
6527, 1.0625, 1.5, 0.1275
6528, 1.125, 1.5, 0.1275
6529, 1.1875, 1.5, 0.1275
6530, 1.25, 1.5, 0.1275
6531, 1.3125, 1.5, 0.1275
6532, 1.375, 1.5, 0.1275
6533, 1.4375, 1.5, 0.1275
6534, 1.5, 1.5, 0.1275
6535, -0.5, -0.5, 0.155
6536, -0.4375, -0.5, 0.155
6537, -0.375, -0.5, 0.155
6538, -0.3125, -0.5, 0.155
6539, -0.25, -0.5, 0.155
6540, -0.1875, -0.5, 0.155
6541, -0.125, -0.5, 0.155
6542, -0.0625, -0.5, 0.155
6543, 0, -0.5, 0.155
6544, 0.0625, -0.5, 0.155
6545, 0.125, -0.5, 0.155
6546, 0.1875, -0.5, 0.155
6547, 0.25, -0.5, 0.155
6548, 0.3125, -0.5, 0.155
6549, 0.375, -0.5, 0.155
6550, 0.4375, -0.5, 0.155
6551, 0.5, -0.5, 0.155
6552, 0.5625, -0.5, 0.155
6553, 0.625, -0.5, 0.155
6554, 0.6875, -0.5, 0.155
6555, 0.75, -0.5, 0.155
6556, 0.8125, -0.5, 0.155
6557, 0.875, -0.5, 0.155
6558, 0.9375, -0.5, 0.155
6559, 1, -0.5, 0.155
6560, 1.0625, -0.5, 0.155
6561, 1.125, -0.5, 0.155
6562, 1.1875, -0.5, 0.155
6563, 1.25, -0.5, 0.155
6564, 1.3125, -0.5, 0.155
6565, 1.375, -0.5, 0.155
6566, 1.4375, -0.5, 0.155
6567, 1.5, -0.5, 0.155
6568, -0.5, -0.4375, 0.155
6569, -0.4375, -0.4375, 0.155
6570, -0.375, -0.4375, 0.155
6571, -0.3125, -0.4375, 0.155
6572, -0.25, -0.4375, 0.155
6573, -0.1875, -0.4375, 0.155
6574, -0.125, -0.4375, 0.155
6575, -0.0625, -0.4375, 0.155
6576, 0, -0.4375, 0.155
6577, 0.0625, -0.4375, 0.155
6578, 0.125, -0.4375, 0.155
6579, 0.1875, -0.4375, 0.155
6580, 0.25, -0.4375, 0.155
6581, 0.3125, -0.4375, 0.155
6582, 0.375, -0.4375, 0.155
6583, 0.4375, -0.4375, 0.155
6584, 0.5, -0.4375, 0.155
6585, 0.5625, -0.4375, 0.155
6586, 0.625, -0.4375, 0.155
6587, 0.6875, -0.4375, 0.155
6588, 0.75, -0.4375, 0.155
6589, 0.8125, -0.4375, 0.155
6590, 0.875, -0.4375, 0.155
6591, 0.9375, -0.4375, 0.155
6592, 1, -0.4375, 0.155
6593, 1.0625, -0.4375, 0.155
6594, 1.125, -0.4375, 0.155
6595, 1.1875, -0.4375, 0.155
6596, 1.25, -0.4375, 0.155
6597, 1.3125, -0.4375, 0.155
6598, 1.375, -0.4375, 0.155
6599, 1.4375, -0.4375, 0.155
6600, 1.5, -0.4375, 0.155
6601, -0.5, -0.375, 0.155
6602, -0.4375, -0.375, 0.155
6603, -0.375, -0.375, 0.155
6604, -0.3125, -0.375, 0.155
6605, -0.25, -0.375, 0.155
6606, -0.1875, -0.375, 0.155
6607, -0.125, -0.375, 0.155
6608, -0.0625, -0.375, 0.155
6609, 0, -0.375, 0.155
6610, 0.0625, -0.375, 0.155
6611, 0.125, -0.375, 0.155
6612, 0.1875, -0.375, 0.155
6613, 0.25, -0.375, 0.155
6614, 0.3125, -0.375, 0.155
6615, 0.375, -0.375, 0.155
6616, 0.4375, -0.375, 0.155
6617, 0.5, -0.375, 0.155
6618, 0.5625, -0.375, 0.155
6619, 0.625, -0.375, 0.155
6620, 0.6875, -0.375, 0.155
6621, 0.75, -0.375, 0.155
6622, 0.8125, -0.375, 0.155
6623, 0.875, -0.375, 0.155
6624, 0.9375, -0.375, 0.155
6625, 1, -0.375, 0.155
6626, 1.0625, -0.375, 0.155
6627, 1.125, -0.375, 0.155
6628, 1.1875, -0.375, 0.155
6629, 1.25, -0.375, 0.155
6630, 1.3125, -0.375, 0.155
6631, 1.375, -0.375, 0.155
6632, 1.4375, -0.375, 0.155
6633, 1.5, -0.375, 0.155
6634, -0.5, -0.3125, 0.155
6635, -0.4375, -0.3125, 0.155
6636, -0.375, -0.3125, 0.155
6637, -0.3125, -0.3125, 0.155
6638, -0.25, -0.3125, 0.155
6639, -0.1875, -0.3125, 0.155
6640, -0.125, -0.3125, 0.155
6641, -0.0625, -0.3125, 0.155
6642, 0, -0.3125, 0.155
6643, 0.0625, -0.3125, 0.155
6644, 0.125, -0.3125, 0.155
6645, 0.1875, -0.3125, 0.155
6646, 0.25, -0.3125, 0.155
6647, 0.3125, -0.3125, 0.155
6648, 0.375, -0.3125, 0.155
6649, 0.4375, -0.3125, 0.155
6650, 0.5, -0.3125, 0.155
6651, 0.5625, -0.3125, 0.155
6652, 0.625, -0.3125, 0.155
6653, 0.6875, -0.3125, 0.155
6654, 0.75, -0.3125, 0.155
6655, 0.8125, -0.3125, 0.155
6656, 0.875, -0.3125, 0.155
6657, 0.9375, -0.3125, 0.155
6658, 1, -0.3125, 0.155
6659, 1.0625, -0.3125, 0.155
6660, 1.125, -0.3125, 0.155
6661, 1.1875, -0.3125, 0.155
6662, 1.25, -0.3125, 0.155
6663, 1.3125, -0.3125, 0.155
6664, 1.375, -0.3125, 0.155
6665, 1.4375, -0.3125, 0.155
6666, 1.5, -0.3125, 0.155
6667, -0.5, -0.25, 0.155
6668, -0.4375, -0.25, 0.155
6669, -0.375, -0.25, 0.155
6670, -0.3125, -0.25, 0.155
6671, -0.25, -0.25, 0.155
6672, -0.1875, -0.25, 0.155
6673, -0.125, -0.25, 0.155
6674, -0.0625, -0.25, 0.155
6675, 0, -0.25, 0.155
6676, 0.0625, -0.25, 0.155
6677, 0.125, -0.25, 0.155
6678, 0.1875, -0.25, 0.155
6679, 0.25, -0.25, 0.155
6680, 0.3125, -0.25, 0.155
6681, 0.375, -0.25, 0.155
6682, 0.4375, -0.25, 0.155
6683, 0.5, -0.25, 0.155
6684, 0.5625, -0.25, 0.155
6685, 0.625, -0.25, 0.155
6686, 0.6875, -0.25, 0.155
6687, 0.75, -0.25, 0.155
6688, 0.8125, -0.25, 0.155
6689, 0.875, -0.25, 0.155
6690, 0.9375, -0.25, 0.155
6691, 1, -0.25, 0.155
6692, 1.0625, -0.25, 0.155
6693, 1.125, -0.25, 0.155
6694, 1.1875, -0.25, 0.155
6695, 1.25, -0.25, 0.155
6696, 1.3125, -0.25, 0.155
6697, 1.375, -0.25, 0.155
6698, 1.4375, -0.25, 0.155
6699, 1.5, -0.25, 0.155
6700, -0.5, -0.1875, 0.155
6701, -0.4375, -0.1875, 0.155
6702, -0.375, -0.1875, 0.155
6703, -0.3125, -0.1875, 0.155
6704, -0.25, -0.1875, 0.155
6705, -0.1875, -0.1875, 0.155
6706, -0.125, -0.1875, 0.155
6707, -0.0625, -0.1875, 0.155
6708, 0, -0.1875, 0.155
6709, 0.0625, -0.1875, 0.155
6710, 0.125, -0.1875, 0.155
6711, 0.1875, -0.1875, 0.155
6712, 0.25, -0.1875, 0.155
6713, 0.3125, -0.1875, 0.155
6714, 0.375, -0.1875, 0.155
6715, 0.4375, -0.1875, 0.155
6716, 0.5, -0.1875, 0.155
6717, 0.5625, -0.1875, 0.155
6718, 0.625, -0.1875, 0.155
6719, 0.6875, -0.1875, 0.155
6720, 0.75, -0.1875, 0.155
6721, 0.8125, -0.1875, 0.155
6722, 0.875, -0.1875, 0.155
6723, 0.9375, -0.1875, 0.155
6724, 1, -0.1875, 0.155
6725, 1.0625, -0.1875, 0.155
6726, 1.125, -0.1875, 0.155
6727, 1.1875, -0.1875, 0.155
6728, 1.25, -0.1875, 0.155
6729, 1.3125, -0.1875, 0.155
6730, 1.375, -0.1875, 0.155
6731, 1.4375, -0.1875, 0.155
6732, 1.5, -0.1875, 0.155
6733, -0.5, -0.125, 0.155
6734, -0.4375, -0.125, 0.155
6735, -0.375, -0.125, 0.155
6736, -0.3125, -0.125, 0.155
6737, -0.25, -0.125, 0.155
6738, -0.1875, -0.125, 0.155
6739, -0.125, -0.125, 0.155
6740, -0.0625, -0.125, 0.155
6741, 0, -0.125, 0.155
6742, 0.0625, -0.125, 0.155
6743, 0.125, -0.125, 0.155
6744, 0.1875, -0.125, 0.155
6745, 0.25, -0.125, 0.155
6746, 0.3125, -0.125, 0.155
6747, 0.375, -0.125, 0.155
6748, 0.4375, -0.125, 0.155
6749, 0.5, -0.125, 0.155
6750, 0.5625, -0.125, 0.155
6751, 0.625, -0.125, 0.155
6752, 0.6875, -0.125, 0.155
6753, 0.75, -0.125, 0.155
6754, 0.8125, -0.125, 0.155
6755, 0.875, -0.125, 0.155
6756, 0.9375, -0.125, 0.155
6757, 1, -0.125, 0.155
6758, 1.0625, -0.125, 0.155
6759, 1.125, -0.125, 0.155
6760, 1.1875, -0.125, 0.155
6761, 1.25, -0.125, 0.155
6762, 1.3125, -0.125, 0.155
6763, 1.375, -0.125, 0.155
6764, 1.4375, -0.125, 0.155
6765, 1.5, -0.125, 0.155
6766, -0.5, -0.0625, 0.155
6767, -0.4375, -0.0625, 0.155
6768, -0.375, -0.0625, 0.155
6769, -0.3125, -0.0625, 0.155
6770, -0.25, -0.0625, 0.155
6771, -0.1875, -0.0625, 0.155
6772, -0.125, -0.0625, 0.155
6773, -0.0625, -0.0625, 0.155
6774, 0, -0.0625, 0.155
6775, 0.0625, -0.0625, 0.155
6776, 0.125, -0.0625, 0.155
6777, 0.1875, -0.0625, 0.155
6778, 0.25, -0.0625, 0.155
6779, 0.3125, -0.0625, 0.155
6780, 0.375, -0.0625, 0.155
6781, 0.4375, -0.0625, 0.155
6782, 0.5, -0.0625, 0.155
6783, 0.5625, -0.0625, 0.155
6784, 0.625, -0.0625, 0.155
6785, 0.6875, -0.0625, 0.155
6786, 0.75, -0.0625, 0.155
6787, 0.8125, -0.0625, 0.155
6788, 0.875, -0.0625, 0.155
6789, 0.9375, -0.0625, 0.155
6790, 1, -0.0625, 0.155
6791, 1.0625, -0.0625, 0.155
6792, 1.125, -0.0625, 0.155
6793, 1.1875, -0.0625, 0.155
6794, 1.25, -0.0625, 0.155
6795, 1.3125, -0.0625, 0.155
6796, 1.375, -0.0625, 0.155
6797, 1.4375, -0.0625, 0.155
6798, 1.5, -0.0625, 0.155
6799, -0.5, 0, 0.155
6800, -0.4375, 0, 0.155
6801, -0.375, 0, 0.155
6802, -0.3125, 0, 0.155
6803, -0.25, 0, 0.155
6804, -0.1875, 0, 0.155
6805, -0.125, 0, 0.155
6806, -0.0625, 0, 0.155
6807, 0, 0, 0.155
6808, 0.0625, 0, 0.155
6809, 0.125, 0, 0.155
6810, 0.1875, 0, 0.155
6811, 0.25, 0, 0.155
6812, 0.3125, 0, 0.155
6813, 0.375, 0, 0.155
6814, 0.4375, 0, 0.155
6815, 0.5, 0, 0.155
6816, 0.5625, 0, 0.155
6817, 0.625, 0, 0.155
6818, 0.6875, 0, 0.155
6819, 0.75, 0, 0.155
6820, 0.8125, 0, 0.155
6821, 0.875, 0, 0.155
6822, 0.9375, 0, 0.155
6823, 1, 0, 0.155
6824, 1.0625, 0, 0.155
6825, 1.125, 0, 0.155
6826, 1.1875, 0, 0.155
6827, 1.25, 0, 0.155
6828, 1.3125, 0, 0.155
6829, 1.375, 0, 0.155
6830, 1.4375, 0, 0.155
6831, 1.5, 0, 0.155
6832, -0.5, 0.0625, 0.155
6833, -0.4375, 0.0625, 0.155
6834, -0.375, 0.0625, 0.155
6835, -0.3125, 0.0625, 0.155
6836, -0.25, 0.0625, 0.155
6837, -0.1875, 0.0625, 0.155
6838, -0.125, 0.0625, 0.155
6839, -0.0625, 0.0625, 0.155
6840, 0, 0.0625, 0.155
6841, 0.0625, 0.0625, 0.155
6842, 0.125, 0.0625, 0.155
6843, 0.1875, 0.0625, 0.155
6844, 0.25, 0.0625, 0.155
6845, 0.3125, 0.0625, 0.155
6846, 0.375, 0.0625, 0.155
6847, 0.4375, 0.0625, 0.155
6848, 0.5, 0.0625, 0.155
6849, 0.5625, 0.0625, 0.155
6850, 0.625, 0.0625, 0.155
6851, 0.6875, 0.0625, 0.155
6852, 0.75, 0.0625, 0.155
6853, 0.8125, 0.0625, 0.155
6854, 0.875, 0.0625, 0.155
6855, 0.9375, 0.0625, 0.155
6856, 1, 0.0625, 0.155
6857, 1.0625, 0.0625, 0.155
6858, 1.125, 0.0625, 0.155
6859, 1.1875, 0.0625, 0.155
6860, 1.25, 0.0625, 0.155
6861, 1.3125, 0.0625, 0.155
6862, 1.375, 0.0625, 0.155
6863, 1.4375, 0.0625, 0.155
6864, 1.5, 0.0625, 0.155
6865, -0.5, 0.125, 0.155
6866, -0.4375, 0.125, 0.155
6867, -0.375, 0.125, 0.155
6868, -0.3125, 0.125, 0.155
6869, -0.25, 0.125, 0.155
6870, -0.1875, 0.125, 0.155
6871, -0.125, 0.125, 0.155
6872, -0.0625, 0.125, 0.155
6873, 0, 0.125, 0.155
6874, 0.0625, 0.125, 0.155
6875, 0.125, 0.125, 0.155
6876, 0.1875, 0.125, 0.155
6877, 0.25, 0.125, 0.155
6878, 0.3125, 0.125, 0.155
6879, 0.375, 0.125, 0.155
6880, 0.4375, 0.125, 0.155
6881, 0.5, 0.125, 0.155
6882, 0.5625, 0.125, 0.155
6883, 0.625, 0.125, 0.155
6884, 0.6875, 0.125, 0.155
6885, 0.75, 0.125, 0.155
6886, 0.8125, 0.125, 0.155
6887, 0.875, 0.125, 0.155
6888, 0.9375, 0.125, 0.155
6889, 1, 0.125, 0.155
6890, 1.0625, 0.125, 0.155
6891, 1.125, 0.125, 0.155
6892, 1.1875, 0.125, 0.155
6893, 1.25, 0.125, 0.155
6894, 1.3125, 0.125, 0.155
6895, 1.375, 0.125, 0.155
6896, 1.4375, 0.125, 0.155
6897, 1.5, 0.125, 0.155
6898, -0.5, 0.1875, 0.155
6899, -0.4375, 0.1875, 0.155
6900, -0.375, 0.1875, 0.155
6901, -0.3125, 0.1875, 0.155
6902, -0.25, 0.1875, 0.155
6903, -0.1875, 0.1875, 0.155
6904, -0.125, 0.1875, 0.155
6905, -0.0625, 0.1875, 0.155
6906, 0, 0.1875, 0.155
6907, 0.0625, 0.1875, 0.155
6908, 0.125, 0.1875, 0.155
6909, 0.1875, 0.1875, 0.155
6910, 0.25, 0.1875, 0.155
6911, 0.3125, 0.1875, 0.155
6912, 0.375, 0.1875, 0.155
6913, 0.4375, 0.1875, 0.155
6914, 0.5, 0.1875, 0.155
6915, 0.5625, 0.1875, 0.155
6916, 0.625, 0.1875, 0.155
6917, 0.6875, 0.1875, 0.155
6918, 0.75, 0.1875, 0.155
6919, 0.8125, 0.1875, 0.155
6920, 0.875, 0.1875, 0.155
6921, 0.9375, 0.1875, 0.155
6922, 1, 0.1875, 0.155
6923, 1.0625, 0.1875, 0.155
6924, 1.125, 0.1875, 0.155
6925, 1.1875, 0.1875, 0.155
6926, 1.25, 0.1875, 0.155
6927, 1.3125, 0.1875, 0.155
6928, 1.375, 0.1875, 0.155
6929, 1.4375, 0.1875, 0.155
6930, 1.5, 0.1875, 0.155
6931, -0.5, 0.25, 0.155
6932, -0.4375, 0.25, 0.155
6933, -0.375, 0.25, 0.155
6934, -0.3125, 0.25, 0.155
6935, -0.25, 0.25, 0.155
6936, -0.1875, 0.25, 0.155
6937, -0.125, 0.25, 0.155
6938, -0.0625, 0.25, 0.155
6939, 0, 0.25, 0.155
6940, 0.0625, 0.25, 0.155
6941, 0.125, 0.25, 0.155
6942, 0.1875, 0.25, 0.155
6943, 0.25, 0.25, 0.155
6944, 0.3125, 0.25, 0.155
6945, 0.375, 0.25, 0.155
6946, 0.4375, 0.25, 0.155
6947, 0.5, 0.25, 0.155
6948, 0.5625, 0.25, 0.155
6949, 0.625, 0.25, 0.155
6950, 0.6875, 0.25, 0.155
6951, 0.75, 0.25, 0.155
6952, 0.8125, 0.25, 0.155
6953, 0.875, 0.25, 0.155
6954, 0.9375, 0.25, 0.155
6955, 1, 0.25, 0.155
6956, 1.0625, 0.25, 0.155
6957, 1.125, 0.25, 0.155
6958, 1.1875, 0.25, 0.155
6959, 1.25, 0.25, 0.155
6960, 1.3125, 0.25, 0.155
6961, 1.375, 0.25, 0.155
6962, 1.4375, 0.25, 0.155
6963, 1.5, 0.25, 0.155
6964, -0.5, 0.3125, 0.155
6965, -0.4375, 0.3125, 0.155
6966, -0.375, 0.3125, 0.155
6967, -0.3125, 0.3125, 0.155
6968, -0.25, 0.3125, 0.155
6969, -0.1875, 0.3125, 0.155
6970, -0.125, 0.3125, 0.155
6971, -0.0625, 0.3125, 0.155
6972, 0, 0.3125, 0.155
6973, 0.0625, 0.3125, 0.155
6974, 0.125, 0.3125, 0.155
6975, 0.1875, 0.3125, 0.155
6976, 0.25, 0.3125, 0.155
6977, 0.3125, 0.3125, 0.155
6978, 0.375, 0.3125, 0.155
6979, 0.4375, 0.3125, 0.155
6980, 0.5, 0.3125, 0.155
6981, 0.5625, 0.3125, 0.155
6982, 0.625, 0.3125, 0.155
6983, 0.6875, 0.3125, 0.155
6984, 0.75, 0.3125, 0.155
6985, 0.8125, 0.3125, 0.155
6986, 0.875, 0.3125, 0.155
6987, 0.9375, 0.3125, 0.155
6988, 1, 0.3125, 0.155
6989, 1.0625, 0.3125, 0.155
6990, 1.125, 0.3125, 0.155
6991, 1.1875, 0.3125, 0.155
6992, 1.25, 0.3125, 0.155
6993, 1.3125, 0.3125, 0.155
6994, 1.375, 0.3125, 0.155
6995, 1.4375, 0.3125, 0.155
6996, 1.5, 0.3125, 0.155
6997, -0.5, 0.375, 0.155
6998, -0.4375, 0.375, 0.155
6999, -0.375, 0.375, 0.155
7000, -0.3125, 0.375, 0.155
7001, -0.25, 0.375, 0.155
7002, -0.1875, 0.375, 0.155
7003, -0.125, 0.375, 0.155
7004, -0.0625, 0.375, 0.155
7005, 0, 0.375, 0.155
7006, 0.0625, 0.375, 0.155
7007, 0.125, 0.375, 0.155
7008, 0.1875, 0.375, 0.155
7009, 0.25, 0.375, 0.155
7010, 0.3125, 0.375, 0.155
7011, 0.375, 0.375, 0.155
7012, 0.4375, 0.375, 0.155
7013, 0.5, 0.375, 0.155
7014, 0.5625, 0.375, 0.155
7015, 0.625, 0.375, 0.155
7016, 0.6875, 0.375, 0.155
7017, 0.75, 0.375, 0.155
7018, 0.8125, 0.375, 0.155
7019, 0.875, 0.375, 0.155
7020, 0.9375, 0.375, 0.155
7021, 1, 0.375, 0.155
7022, 1.0625, 0.375, 0.155
7023, 1.125, 0.375, 0.155
7024, 1.1875, 0.375, 0.155
7025, 1.25, 0.375, 0.155
7026, 1.3125, 0.375, 0.155
7027, 1.375, 0.375, 0.155
7028, 1.4375, 0.375, 0.155
7029, 1.5, 0.375, 0.155
7030, -0.5, 0.4375, 0.155
7031, -0.4375, 0.4375, 0.155
7032, -0.375, 0.4375, 0.155
7033, -0.3125, 0.4375, 0.155
7034, -0.25, 0.4375, 0.155
7035, -0.1875, 0.4375, 0.155
7036, -0.125, 0.4375, 0.155
7037, -0.0625, 0.4375, 0.155
7038, 0, 0.4375, 0.155
7039, 0.0625, 0.4375, 0.155
7040, 0.125, 0.4375, 0.155
7041, 0.1875, 0.4375, 0.155
7042, 0.25, 0.4375, 0.155
7043, 0.3125, 0.4375, 0.155
7044, 0.375, 0.4375, 0.155
7045, 0.4375, 0.4375, 0.155
7046, 0.5, 0.4375, 0.155
7047, 0.5625, 0.4375, 0.155
7048, 0.625, 0.4375, 0.155
7049, 0.6875, 0.4375, 0.155
7050, 0.75, 0.4375, 0.155
7051, 0.8125, 0.4375, 0.155
7052, 0.875, 0.4375, 0.155
7053, 0.9375, 0.4375, 0.155
7054, 1, 0.4375, 0.155
7055, 1.0625, 0.4375, 0.155
7056, 1.125, 0.4375, 0.155
7057, 1.1875, 0.4375, 0.155
7058, 1.25, 0.4375, 0.155
7059, 1.3125, 0.4375, 0.155
7060, 1.375, 0.4375, 0.155
7061, 1.4375, 0.4375, 0.155
7062, 1.5, 0.4375, 0.155
7063, -0.5, 0.5, 0.155
7064, -0.4375, 0.5, 0.155
7065, -0.375, 0.5, 0.155
7066, -0.3125, 0.5, 0.155
7067, -0.25, 0.5, 0.155
7068, -0.1875, 0.5, 0.155
7069, -0.125, 0.5, 0.155
7070, -0.0625, 0.5, 0.155
7071, 0, 0.5, 0.155
7072, 0.0625, 0.5, 0.155
7073, 0.125, 0.5, 0.155
7074, 0.1875, 0.5, 0.155
7075, 0.25, 0.5, 0.155
7076, 0.3125, 0.5, 0.155
7077, 0.375, 0.5, 0.155
7078, 0.4375, 0.5, 0.155
7079, 0.5, 0.5, 0.155
7080, 0.5625, 0.5, 0.155
7081, 0.625, 0.5, 0.155
7082, 0.6875, 0.5, 0.155
7083, 0.75, 0.5, 0.155
7084, 0.8125, 0.5, 0.155
7085, 0.875, 0.5, 0.155
7086, 0.9375, 0.5, 0.155
7087, 1, 0.5, 0.155
7088, 1.0625, 0.5, 0.155
7089, 1.125, 0.5, 0.155
7090, 1.1875, 0.5, 0.155
7091, 1.25, 0.5, 0.155
7092, 1.3125, 0.5, 0.155
7093, 1.375, 0.5, 0.155
7094, 1.4375, 0.5, 0.155
7095, 1.5, 0.5, 0.155
7096, -0.5, 0.5625, 0.155
7097, -0.4375, 0.5625, 0.155
7098, -0.375, 0.5625, 0.155
7099, -0.3125, 0.5625, 0.155
7100, -0.25, 0.5625, 0.155
7101, -0.1875, 0.5625, 0.155
7102, -0.125, 0.5625, 0.155
7103, -0.0625, 0.5625, 0.155
7104, 0, 0.5625, 0.155
7105, 0.0625, 0.5625, 0.155
7106, 0.125, 0.5625, 0.155
7107, 0.1875, 0.5625, 0.155
7108, 0.25, 0.5625, 0.155
7109, 0.3125, 0.5625, 0.155
7110, 0.375, 0.5625, 0.155
7111, 0.4375, 0.5625, 0.155
7112, 0.5, 0.5625, 0.155
7113, 0.5625, 0.5625, 0.155
7114, 0.625, 0.5625, 0.155
7115, 0.6875, 0.5625, 0.155
7116, 0.75, 0.5625, 0.155
7117, 0.8125, 0.5625, 0.155
7118, 0.875, 0.5625, 0.155
7119, 0.9375, 0.5625, 0.155
7120, 1, 0.5625, 0.155
7121, 1.0625, 0.5625, 0.155
7122, 1.125, 0.5625, 0.155
7123, 1.1875, 0.5625, 0.155
7124, 1.25, 0.5625, 0.155
7125, 1.3125, 0.5625, 0.155
7126, 1.375, 0.5625, 0.155
7127, 1.4375, 0.5625, 0.155
7128, 1.5, 0.5625, 0.155
7129, -0.5, 0.625, 0.155
7130, -0.4375, 0.625, 0.155
7131, -0.375, 0.625, 0.155
7132, -0.3125, 0.625, 0.155
7133, -0.25, 0.625, 0.155
7134, -0.1875, 0.625, 0.155
7135, -0.125, 0.625, 0.155
7136, -0.0625, 0.625, 0.155
7137, 0, 0.625, 0.155
7138, 0.0625, 0.625, 0.155
7139, 0.125, 0.625, 0.155
7140, 0.1875, 0.625, 0.155
7141, 0.25, 0.625, 0.155
7142, 0.3125, 0.625, 0.155
7143, 0.375, 0.625, 0.155
7144, 0.4375, 0.625, 0.155
7145, 0.5, 0.625, 0.155
7146, 0.5625, 0.625, 0.155
7147, 0.625, 0.625, 0.155
7148, 0.6875, 0.625, 0.155
7149, 0.75, 0.625, 0.155
7150, 0.8125, 0.625, 0.155
7151, 0.875, 0.625, 0.155
7152, 0.9375, 0.625, 0.155
7153, 1, 0.625, 0.155
7154, 1.0625, 0.625, 0.155
7155, 1.125, 0.625, 0.155
7156, 1.1875, 0.625, 0.155
7157, 1.25, 0.625, 0.155
7158, 1.3125, 0.625, 0.155
7159, 1.375, 0.625, 0.155
7160, 1.4375, 0.625, 0.155
7161, 1.5, 0.625, 0.155
7162, -0.5, 0.6875, 0.155
7163, -0.4375, 0.6875, 0.155
7164, -0.375, 0.6875, 0.155
7165, -0.3125, 0.6875, 0.155
7166, -0.25, 0.6875, 0.155
7167, -0.1875, 0.6875, 0.155
7168, -0.125, 0.6875, 0.155
7169, -0.0625, 0.6875, 0.155
7170, 0, 0.6875, 0.155
7171, 0.0625, 0.6875, 0.155
7172, 0.125, 0.6875, 0.155
7173, 0.1875, 0.6875, 0.155
7174, 0.25, 0.6875, 0.155
7175, 0.3125, 0.6875, 0.155
7176, 0.375, 0.6875, 0.155
7177, 0.4375, 0.6875, 0.155
7178, 0.5, 0.6875, 0.155
7179, 0.5625, 0.6875, 0.155
7180, 0.625, 0.6875, 0.155
7181, 0.6875, 0.6875, 0.155
7182, 0.75, 0.6875, 0.155
7183, 0.8125, 0.6875, 0.155
7184, 0.875, 0.6875, 0.155
7185, 0.9375, 0.6875, 0.155
7186, 1, 0.6875, 0.155
7187, 1.0625, 0.6875, 0.155
7188, 1.125, 0.6875, 0.155
7189, 1.1875, 0.6875, 0.155
7190, 1.25, 0.6875, 0.155
7191, 1.3125, 0.6875, 0.155
7192, 1.375, 0.6875, 0.155
7193, 1.4375, 0.6875, 0.155
7194, 1.5, 0.6875, 0.155
7195, -0.5, 0.75, 0.155
7196, -0.4375, 0.75, 0.155
7197, -0.375, 0.75, 0.155
7198, -0.3125, 0.75, 0.155
7199, -0.25, 0.75, 0.155
7200, -0.1875, 0.75, 0.155
7201, -0.125, 0.75, 0.155
7202, -0.0625, 0.75, 0.155
7203, 0, 0.75, 0.155
7204, 0.0625, 0.75, 0.155
7205, 0.125, 0.75, 0.155
7206, 0.1875, 0.75, 0.155
7207, 0.25, 0.75, 0.155
7208, 0.3125, 0.75, 0.155
7209, 0.375, 0.75, 0.155
7210, 0.4375, 0.75, 0.155
7211, 0.5, 0.75, 0.155
7212, 0.5625, 0.75, 0.155
7213, 0.625, 0.75, 0.155
7214, 0.6875, 0.75, 0.155
7215, 0.75, 0.75, 0.155
7216, 0.8125, 0.75, 0.155
7217, 0.875, 0.75, 0.155
7218, 0.9375, 0.75, 0.155
7219, 1, 0.75, 0.155
7220, 1.0625, 0.75, 0.155
7221, 1.125, 0.75, 0.155
7222, 1.1875, 0.75, 0.155
7223, 1.25, 0.75, 0.155
7224, 1.3125, 0.75, 0.155
7225, 1.375, 0.75, 0.155
7226, 1.4375, 0.75, 0.155
7227, 1.5, 0.75, 0.155
7228, -0.5, 0.8125, 0.155
7229, -0.4375, 0.8125, 0.155
7230, -0.375, 0.8125, 0.155
7231, -0.3125, 0.8125, 0.155
7232, -0.25, 0.8125, 0.155
7233, -0.1875, 0.8125, 0.155
7234, -0.125, 0.8125, 0.155
7235, -0.0625, 0.8125, 0.155
7236, 0, 0.8125, 0.155
7237, 0.0625, 0.8125, 0.155
7238, 0.125, 0.8125, 0.155
7239, 0.1875, 0.8125, 0.155
7240, 0.25, 0.8125, 0.155
7241, 0.3125, 0.8125, 0.155
7242, 0.375, 0.8125, 0.155
7243, 0.4375, 0.8125, 0.155
7244, 0.5, 0.8125, 0.155
7245, 0.5625, 0.8125, 0.155
7246, 0.625, 0.8125, 0.155
7247, 0.6875, 0.8125, 0.155
7248, 0.75, 0.8125, 0.155
7249, 0.8125, 0.8125, 0.155
7250, 0.875, 0.8125, 0.155
7251, 0.9375, 0.8125, 0.155
7252, 1, 0.8125, 0.155
7253, 1.0625, 0.8125, 0.155
7254, 1.125, 0.8125, 0.155
7255, 1.1875, 0.8125, 0.155
7256, 1.25, 0.8125, 0.155
7257, 1.3125, 0.8125, 0.155
7258, 1.375, 0.8125, 0.155
7259, 1.4375, 0.8125, 0.155
7260, 1.5, 0.8125, 0.155
7261, -0.5, 0.875, 0.155
7262, -0.4375, 0.875, 0.155
7263, -0.375, 0.875, 0.155
7264, -0.3125, 0.875, 0.155
7265, -0.25, 0.875, 0.155
7266, -0.1875, 0.875, 0.155
7267, -0.125, 0.875, 0.155
7268, -0.0625, 0.875, 0.155
7269, 0, 0.875, 0.155
7270, 0.0625, 0.875, 0.155
7271, 0.125, 0.875, 0.155
7272, 0.1875, 0.875, 0.155
7273, 0.25, 0.875, 0.155
7274, 0.3125, 0.875, 0.155
7275, 0.375, 0.875, 0.155
7276, 0.4375, 0.875, 0.155
7277, 0.5, 0.875, 0.155
7278, 0.5625, 0.875, 0.155
7279, 0.625, 0.875, 0.155
7280, 0.6875, 0.875, 0.155
7281, 0.75, 0.875, 0.155
7282, 0.8125, 0.875, 0.155
7283, 0.875, 0.875, 0.155
7284, 0.9375, 0.875, 0.155
7285, 1, 0.875, 0.155
7286, 1.0625, 0.875, 0.155
7287, 1.125, 0.875, 0.155
7288, 1.1875, 0.875, 0.155
7289, 1.25, 0.875, 0.155
7290, 1.3125, 0.875, 0.155
7291, 1.375, 0.875, 0.155
7292, 1.4375, 0.875, 0.155
7293, 1.5, 0.875, 0.155
7294, -0.5, 0.9375, 0.155
7295, -0.4375, 0.9375, 0.155
7296, -0.375, 0.9375, 0.155
7297, -0.3125, 0.9375, 0.155
7298, -0.25, 0.9375, 0.155
7299, -0.1875, 0.9375, 0.155
7300, -0.125, 0.9375, 0.155
7301, -0.0625, 0.9375, 0.155
7302, 0, 0.9375, 0.155
7303, 0.0625, 0.9375, 0.155
7304, 0.125, 0.9375, 0.155
7305, 0.1875, 0.9375, 0.155
7306, 0.25, 0.9375, 0.155
7307, 0.3125, 0.9375, 0.155
7308, 0.375, 0.9375, 0.155
7309, 0.4375, 0.9375, 0.155
7310, 0.5, 0.9375, 0.155
7311, 0.5625, 0.9375, 0.155
7312, 0.625, 0.9375, 0.155
7313, 0.6875, 0.9375, 0.155
7314, 0.75, 0.9375, 0.155
7315, 0.8125, 0.9375, 0.155
7316, 0.875, 0.9375, 0.155
7317, 0.9375, 0.9375, 0.155
7318, 1, 0.9375, 0.155
7319, 1.0625, 0.9375, 0.155
7320, 1.125, 0.9375, 0.155
7321, 1.1875, 0.9375, 0.155
7322, 1.25, 0.9375, 0.155
7323, 1.3125, 0.9375, 0.155
7324, 1.375, 0.9375, 0.155
7325, 1.4375, 0.9375, 0.155
7326, 1.5, 0.9375, 0.155
7327, -0.5, 1, 0.155
7328, -0.4375, 1, 0.155
7329, -0.375, 1, 0.155
7330, -0.3125, 1, 0.155
7331, -0.25, 1, 0.155
7332, -0.1875, 1, 0.155
7333, -0.125, 1, 0.155
7334, -0.0625, 1, 0.155
7335, 0, 1, 0.155
7336, 0.0625, 1, 0.155
7337, 0.125, 1, 0.155
7338, 0.1875, 1, 0.155
7339, 0.25, 1, 0.155
7340, 0.3125, 1, 0.155
7341, 0.375, 1, 0.155
7342, 0.4375, 1, 0.155
7343, 0.5, 1, 0.155
7344, 0.5625, 1, 0.155
7345, 0.625, 1, 0.155
7346, 0.6875, 1, 0.155
7347, 0.75, 1, 0.155
7348, 0.8125, 1, 0.155
7349, 0.875, 1, 0.155
7350, 0.9375, 1, 0.155
7351, 1, 1, 0.155
7352, 1.0625, 1, 0.155
7353, 1.125, 1, 0.155
7354, 1.1875, 1, 0.155
7355, 1.25, 1, 0.155
7356, 1.3125, 1, 0.155
7357, 1.375, 1, 0.155
7358, 1.4375, 1, 0.155
7359, 1.5, 1, 0.155
7360, -0.5, 1.0625, 0.155
7361, -0.4375, 1.0625, 0.155
7362, -0.375, 1.0625, 0.155
7363, -0.3125, 1.0625, 0.155
7364, -0.25, 1.0625, 0.155
7365, -0.1875, 1.0625, 0.155
7366, -0.125, 1.0625, 0.155
7367, -0.0625, 1.0625, 0.155
7368, 0, 1.0625, 0.155
7369, 0.0625, 1.0625, 0.155
7370, 0.125, 1.0625, 0.155
7371, 0.1875, 1.0625, 0.155
7372, 0.25, 1.0625, 0.155
7373, 0.3125, 1.0625, 0.155
7374, 0.375, 1.0625, 0.155
7375, 0.4375, 1.0625, 0.155
7376, 0.5, 1.0625, 0.155
7377, 0.5625, 1.0625, 0.155
7378, 0.625, 1.0625, 0.155
7379, 0.6875, 1.0625, 0.155
7380, 0.75, 1.0625, 0.155
7381, 0.8125, 1.0625, 0.155
7382, 0.875, 1.0625, 0.155
7383, 0.9375, 1.0625, 0.155
7384, 1, 1.0625, 0.155
7385, 1.0625, 1.0625, 0.155
7386, 1.125, 1.0625, 0.155
7387, 1.1875, 1.0625, 0.155
7388, 1.25, 1.0625, 0.155
7389, 1.3125, 1.0625, 0.155
7390, 1.375, 1.0625, 0.155
7391, 1.4375, 1.0625, 0.155
7392, 1.5, 1.0625, 0.155
7393, -0.5, 1.125, 0.155
7394, -0.4375, 1.125, 0.155
7395, -0.375, 1.125, 0.155
7396, -0.3125, 1.125, 0.155
7397, -0.25, 1.125, 0.155
7398, -0.1875, 1.125, 0.155
7399, -0.125, 1.125, 0.155
7400, -0.0625, 1.125, 0.155
7401, 0, 1.125, 0.155
7402, 0.0625, 1.125, 0.155
7403, 0.125, 1.125, 0.155
7404, 0.1875, 1.125, 0.155
7405, 0.25, 1.125, 0.155
7406, 0.3125, 1.125, 0.155
7407, 0.375, 1.125, 0.155
7408, 0.4375, 1.125, 0.155
7409, 0.5, 1.125, 0.155
7410, 0.5625, 1.125, 0.155
7411, 0.625, 1.125, 0.155
7412, 0.6875, 1.125, 0.155
7413, 0.75, 1.125, 0.155
7414, 0.8125, 1.125, 0.155
7415, 0.875, 1.125, 0.155
7416, 0.9375, 1.125, 0.155
7417, 1, 1.125, 0.155
7418, 1.0625, 1.125, 0.155
7419, 1.125, 1.125, 0.155
7420, 1.1875, 1.125, 0.155
7421, 1.25, 1.125, 0.155
7422, 1.3125, 1.125, 0.155
7423, 1.375, 1.125, 0.155
7424, 1.4375, 1.125, 0.155
7425, 1.5, 1.125, 0.155
7426, -0.5, 1.1875, 0.155
7427, -0.4375, 1.1875, 0.155
7428, -0.375, 1.1875, 0.155
7429, -0.3125, 1.1875, 0.155
7430, -0.25, 1.1875, 0.155
7431, -0.1875, 1.1875, 0.155
7432, -0.125, 1.1875, 0.155
7433, -0.0625, 1.1875, 0.155
7434, 0, 1.1875, 0.155
7435, 0.0625, 1.1875, 0.155
7436, 0.125, 1.1875, 0.155
7437, 0.1875, 1.1875, 0.155
7438, 0.25, 1.1875, 0.155
7439, 0.3125, 1.1875, 0.155
7440, 0.375, 1.1875, 0.155
7441, 0.4375, 1.1875, 0.155
7442, 0.5, 1.1875, 0.155
7443, 0.5625, 1.1875, 0.155
7444, 0.625, 1.1875, 0.155
7445, 0.6875, 1.1875, 0.155
7446, 0.75, 1.1875, 0.155
7447, 0.8125, 1.1875, 0.155
7448, 0.875, 1.1875, 0.155
7449, 0.9375, 1.1875, 0.155
7450, 1, 1.1875, 0.155
7451, 1.0625, 1.1875, 0.155
7452, 1.125, 1.1875, 0.155
7453, 1.1875, 1.1875, 0.155
7454, 1.25, 1.1875, 0.155
7455, 1.3125, 1.1875, 0.155
7456, 1.375, 1.1875, 0.155
7457, 1.4375, 1.1875, 0.155
7458, 1.5, 1.1875, 0.155
7459, -0.5, 1.25, 0.155
7460, -0.4375, 1.25, 0.155
7461, -0.375, 1.25, 0.155
7462, -0.3125, 1.25, 0.155
7463, -0.25, 1.25, 0.155
7464, -0.1875, 1.25, 0.155
7465, -0.125, 1.25, 0.155
7466, -0.0625, 1.25, 0.155
7467, 0, 1.25, 0.155
7468, 0.0625, 1.25, 0.155
7469, 0.125, 1.25, 0.155
7470, 0.1875, 1.25, 0.155
7471, 0.25, 1.25, 0.155
7472, 0.3125, 1.25, 0.155
7473, 0.375, 1.25, 0.155
7474, 0.4375, 1.25, 0.155
7475, 0.5, 1.25, 0.155
7476, 0.5625, 1.25, 0.155
7477, 0.625, 1.25, 0.155
7478, 0.6875, 1.25, 0.155
7479, 0.75, 1.25, 0.155
7480, 0.8125, 1.25, 0.155
7481, 0.875, 1.25, 0.155
7482, 0.9375, 1.25, 0.155
7483, 1, 1.25, 0.155
7484, 1.0625, 1.25, 0.155
7485, 1.125, 1.25, 0.155
7486, 1.1875, 1.25, 0.155
7487, 1.25, 1.25, 0.155
7488, 1.3125, 1.25, 0.155
7489, 1.375, 1.25, 0.155
7490, 1.4375, 1.25, 0.155
7491, 1.5, 1.25, 0.155
7492, -0.5, 1.3125, 0.155
7493, -0.4375, 1.3125, 0.155
7494, -0.375, 1.3125, 0.155
7495, -0.3125, 1.3125, 0.155
7496, -0.25, 1.3125, 0.155
7497, -0.1875, 1.3125, 0.155
7498, -0.125, 1.3125, 0.155
7499, -0.0625, 1.3125, 0.155
7500, 0, 1.3125, 0.155
7501, 0.0625, 1.3125, 0.155
7502, 0.125, 1.3125, 0.155
7503, 0.1875, 1.3125, 0.155
7504, 0.25, 1.3125, 0.155
7505, 0.3125, 1.3125, 0.155
7506, 0.375, 1.3125, 0.155
7507, 0.4375, 1.3125, 0.155
7508, 0.5, 1.3125, 0.155
7509, 0.5625, 1.3125, 0.155
7510, 0.625, 1.3125, 0.155
7511, 0.6875, 1.3125, 0.155
7512, 0.75, 1.3125, 0.155
7513, 0.8125, 1.3125, 0.155
7514, 0.875, 1.3125, 0.155
7515, 0.9375, 1.3125, 0.155
7516, 1, 1.3125, 0.155
7517, 1.0625, 1.3125, 0.155
7518, 1.125, 1.3125, 0.155
7519, 1.1875, 1.3125, 0.155
7520, 1.25, 1.3125, 0.155
7521, 1.3125, 1.3125, 0.155
7522, 1.375, 1.3125, 0.155
7523, 1.4375, 1.3125, 0.155
7524, 1.5, 1.3125, 0.155
7525, -0.5, 1.375, 0.155
7526, -0.4375, 1.375, 0.155
7527, -0.375, 1.375, 0.155
7528, -0.3125, 1.375, 0.155
7529, -0.25, 1.375, 0.155
7530, -0.1875, 1.375, 0.155
7531, -0.125, 1.375, 0.155
7532, -0.0625, 1.375, 0.155
7533, 0, 1.375, 0.155
7534, 0.0625, 1.375, 0.155
7535, 0.125, 1.375, 0.155
7536, 0.1875, 1.375, 0.155
7537, 0.25, 1.375, 0.155
7538, 0.3125, 1.375, 0.155
7539, 0.375, 1.375, 0.155
7540, 0.4375, 1.375, 0.155
7541, 0.5, 1.375, 0.155
7542, 0.5625, 1.375, 0.155
7543, 0.625, 1.375, 0.155
7544, 0.6875, 1.375, 0.155
7545, 0.75, 1.375, 0.155
7546, 0.8125, 1.375, 0.155
7547, 0.875, 1.375, 0.155
7548, 0.9375, 1.375, 0.155
7549, 1, 1.375, 0.155
7550, 1.0625, 1.375, 0.155
7551, 1.125, 1.375, 0.155
7552, 1.1875, 1.375, 0.155
7553, 1.25, 1.375, 0.155
7554, 1.3125, 1.375, 0.155
7555, 1.375, 1.375, 0.155
7556, 1.4375, 1.375, 0.155
7557, 1.5, 1.375, 0.155
7558, -0.5, 1.4375, 0.155
7559, -0.4375, 1.4375, 0.155
7560, -0.375, 1.4375, 0.155
7561, -0.3125, 1.4375, 0.155
7562, -0.25, 1.4375, 0.155
7563, -0.1875, 1.4375, 0.155
7564, -0.125, 1.4375, 0.155
7565, -0.0625, 1.4375, 0.155
7566, 0, 1.4375, 0.155
7567, 0.0625, 1.4375, 0.155
7568, 0.125, 1.4375, 0.155
7569, 0.1875, 1.4375, 0.155
7570, 0.25, 1.4375, 0.155
7571, 0.3125, 1.4375, 0.155
7572, 0.375, 1.4375, 0.155
7573, 0.4375, 1.4375, 0.155
7574, 0.5, 1.4375, 0.155
7575, 0.5625, 1.4375, 0.155
7576, 0.625, 1.4375, 0.155
7577, 0.6875, 1.4375, 0.155
7578, 0.75, 1.4375, 0.155
7579, 0.8125, 1.4375, 0.155
7580, 0.875, 1.4375, 0.155
7581, 0.9375, 1.4375, 0.155
7582, 1, 1.4375, 0.155
7583, 1.0625, 1.4375, 0.155
7584, 1.125, 1.4375, 0.155
7585, 1.1875, 1.4375, 0.155
7586, 1.25, 1.4375, 0.155
7587, 1.3125, 1.4375, 0.155
7588, 1.375, 1.4375, 0.155
7589, 1.4375, 1.4375, 0.155
7590, 1.5, 1.4375, 0.155
7591, -0.5, 1.5, 0.155
7592, -0.4375, 1.5, 0.155
7593, -0.375, 1.5, 0.155
7594, -0.3125, 1.5, 0.155
7595, -0.25, 1.5, 0.155
7596, -0.1875, 1.5, 0.155
7597, -0.125, 1.5, 0.155
7598, -0.0625, 1.5, 0.155
7599, 0, 1.5, 0.155
7600, 0.0625, 1.5, 0.155
7601, 0.125, 1.5, 0.155
7602, 0.1875, 1.5, 0.155
7603, 0.25, 1.5, 0.155
7604, 0.3125, 1.5, 0.155
7605, 0.375, 1.5, 0.155
7606, 0.4375, 1.5, 0.155
7607, 0.5, 1.5, 0.155
7608, 0.5625, 1.5, 0.155
7609, 0.625, 1.5, 0.155
7610, 0.6875, 1.5, 0.155
7611, 0.75, 1.5, 0.155
7612, 0.8125, 1.5, 0.155
7613, 0.875, 1.5, 0.155
7614, 0.9375, 1.5, 0.155
7615, 1, 1.5, 0.155
7616, 1.0625, 1.5, 0.155
7617, 1.125, 1.5, 0.155
7618, 1.1875, 1.5, 0.155
7619, 1.25, 1.5, 0.155
7620, 1.3125, 1.5, 0.155
7621, 1.375, 1.5, 0.155
7622, 1.4375, 1.5, 0.155
7623, 1.5, 1.5, 0.155
7624, -0.5, -0.5, 0.1825
7625, -0.4375, -0.5, 0.1825
7626, -0.375, -0.5, 0.1825
7627, -0.3125, -0.5, 0.1825
7628, -0.25, -0.5, 0.1825
7629, -0.1875, -0.5, 0.1825
7630, -0.125, -0.5, 0.1825
7631, -0.0625, -0.5, 0.1825
7632, 0, -0.5, 0.1825
7633, 0.0625, -0.5, 0.1825
7634, 0.125, -0.5, 0.1825
7635, 0.1875, -0.5, 0.1825
7636, 0.25, -0.5, 0.1825
7637, 0.3125, -0.5, 0.1825
7638, 0.375, -0.5, 0.1825
7639, 0.4375, -0.5, 0.1825
7640, 0.5, -0.5, 0.1825
7641, 0.5625, -0.5, 0.1825
7642, 0.625, -0.5, 0.1825
7643, 0.6875, -0.5, 0.1825
7644, 0.75, -0.5, 0.1825
7645, 0.8125, -0.5, 0.1825
7646, 0.875, -0.5, 0.1825
7647, 0.9375, -0.5, 0.1825
7648, 1, -0.5, 0.1825
7649, 1.0625, -0.5, 0.1825
7650, 1.125, -0.5, 0.1825
7651, 1.1875, -0.5, 0.1825
7652, 1.25, -0.5, 0.1825
7653, 1.3125, -0.5, 0.1825
7654, 1.375, -0.5, 0.1825
7655, 1.4375, -0.5, 0.1825
7656, 1.5, -0.5, 0.1825
7657, -0.5, -0.4375, 0.1825
7658, -0.4375, -0.4375, 0.1825
7659, -0.375, -0.4375, 0.1825
7660, -0.3125, -0.4375, 0.1825
7661, -0.25, -0.4375, 0.1825
7662, -0.1875, -0.4375, 0.1825
7663, -0.125, -0.4375, 0.1825
7664, -0.0625, -0.4375, 0.1825
7665, 0, -0.4375, 0.1825
7666, 0.0625, -0.4375, 0.1825
7667, 0.125, -0.4375, 0.1825
7668, 0.1875, -0.4375, 0.1825
7669, 0.25, -0.4375, 0.1825
7670, 0.3125, -0.4375, 0.1825
7671, 0.375, -0.4375, 0.1825
7672, 0.4375, -0.4375, 0.1825
7673, 0.5, -0.4375, 0.1825
7674, 0.5625, -0.4375, 0.1825
7675, 0.625, -0.4375, 0.1825
7676, 0.6875, -0.4375, 0.1825
7677, 0.75, -0.4375, 0.1825
7678, 0.8125, -0.4375, 0.1825
7679, 0.875, -0.4375, 0.1825
7680, 0.9375, -0.4375, 0.1825
7681, 1, -0.4375, 0.1825
7682, 1.0625, -0.4375, 0.1825
7683, 1.125, -0.4375, 0.1825
7684, 1.1875, -0.4375, 0.1825
7685, 1.25, -0.4375, 0.1825
7686, 1.3125, -0.4375, 0.1825
7687, 1.375, -0.4375, 0.1825
7688, 1.4375, -0.4375, 0.1825
7689, 1.5, -0.4375, 0.1825
7690, -0.5, -0.375, 0.1825
7691, -0.4375, -0.375, 0.1825
7692, -0.375, -0.375, 0.1825
7693, -0.3125, -0.375, 0.1825
7694, -0.25, -0.375, 0.1825
7695, -0.1875, -0.375, 0.1825
7696, -0.125, -0.375, 0.1825
7697, -0.0625, -0.375, 0.1825
7698, 0, -0.375, 0.1825
7699, 0.0625, -0.375, 0.1825
7700, 0.125, -0.375, 0.1825
7701, 0.1875, -0.375, 0.1825
7702, 0.25, -0.375, 0.1825
7703, 0.3125, -0.375, 0.1825
7704, 0.375, -0.375, 0.1825
7705, 0.4375, -0.375, 0.1825
7706, 0.5, -0.375, 0.1825
7707, 0.5625, -0.375, 0.1825
7708, 0.625, -0.375, 0.1825
7709, 0.6875, -0.375, 0.1825
7710, 0.75, -0.375, 0.1825
7711, 0.8125, -0.375, 0.1825
7712, 0.875, -0.375, 0.1825
7713, 0.9375, -0.375, 0.1825
7714, 1, -0.375, 0.1825
7715, 1.0625, -0.375, 0.1825
7716, 1.125, -0.375, 0.1825
7717, 1.1875, -0.375, 0.1825
7718, 1.25, -0.375, 0.1825
7719, 1.3125, -0.375, 0.1825
7720, 1.375, -0.375, 0.1825
7721, 1.4375, -0.375, 0.1825
7722, 1.5, -0.375, 0.1825
7723, -0.5, -0.3125, 0.1825
7724, -0.4375, -0.3125, 0.1825
7725, -0.375, -0.3125, 0.1825
7726, -0.3125, -0.3125, 0.1825
7727, -0.25, -0.3125, 0.1825
7728, -0.1875, -0.3125, 0.1825
7729, -0.125, -0.3125, 0.1825
7730, -0.0625, -0.3125, 0.1825
7731, 0, -0.3125, 0.1825
7732, 0.0625, -0.3125, 0.1825
7733, 0.125, -0.3125, 0.1825
7734, 0.1875, -0.3125, 0.1825
7735, 0.25, -0.3125, 0.1825
7736, 0.3125, -0.3125, 0.1825
7737, 0.375, -0.3125, 0.1825
7738, 0.4375, -0.3125, 0.1825
7739, 0.5, -0.3125, 0.1825
7740, 0.5625, -0.3125, 0.1825
7741, 0.625, -0.3125, 0.1825
7742, 0.6875, -0.3125, 0.1825
7743, 0.75, -0.3125, 0.1825
7744, 0.8125, -0.3125, 0.1825
7745, 0.875, -0.3125, 0.1825
7746, 0.9375, -0.3125, 0.1825
7747, 1, -0.3125, 0.1825
7748, 1.0625, -0.3125, 0.1825
7749, 1.125, -0.3125, 0.1825
7750, 1.1875, -0.3125, 0.1825
7751, 1.25, -0.3125, 0.1825
7752, 1.3125, -0.3125, 0.1825
7753, 1.375, -0.3125, 0.1825
7754, 1.4375, -0.3125, 0.1825
7755, 1.5, -0.3125, 0.1825
7756, -0.5, -0.25, 0.1825
7757, -0.4375, -0.25, 0.1825
7758, -0.375, -0.25, 0.1825
7759, -0.3125, -0.25, 0.1825
7760, -0.25, -0.25, 0.1825
7761, -0.1875, -0.25, 0.1825
7762, -0.125, -0.25, 0.1825
7763, -0.0625, -0.25, 0.1825
7764, 0, -0.25, 0.1825
7765, 0.0625, -0.25, 0.1825
7766, 0.125, -0.25, 0.1825
7767, 0.1875, -0.25, 0.1825
7768, 0.25, -0.25, 0.1825
7769, 0.3125, -0.25, 0.1825
7770, 0.375, -0.25, 0.1825
7771, 0.4375, -0.25, 0.1825
7772, 0.5, -0.25, 0.1825
7773, 0.5625, -0.25, 0.1825
7774, 0.625, -0.25, 0.1825
7775, 0.6875, -0.25, 0.1825
7776, 0.75, -0.25, 0.1825
7777, 0.8125, -0.25, 0.1825
7778, 0.875, -0.25, 0.1825
7779, 0.9375, -0.25, 0.1825
7780, 1, -0.25, 0.1825
7781, 1.0625, -0.25, 0.1825
7782, 1.125, -0.25, 0.1825
7783, 1.1875, -0.25, 0.1825
7784, 1.25, -0.25, 0.1825
7785, 1.3125, -0.25, 0.1825
7786, 1.375, -0.25, 0.1825
7787, 1.4375, -0.25, 0.1825
7788, 1.5, -0.25, 0.1825
7789, -0.5, -0.1875, 0.1825
7790, -0.4375, -0.1875, 0.1825
7791, -0.375, -0.1875, 0.1825
7792, -0.3125, -0.1875, 0.1825
7793, -0.25, -0.1875, 0.1825
7794, -0.1875, -0.1875, 0.1825
7795, -0.125, -0.1875, 0.1825
7796, -0.0625, -0.1875, 0.1825
7797, 0, -0.1875, 0.1825
7798, 0.0625, -0.1875, 0.1825
7799, 0.125, -0.1875, 0.1825
7800, 0.1875, -0.1875, 0.1825
7801, 0.25, -0.1875, 0.1825
7802, 0.3125, -0.1875, 0.1825
7803, 0.375, -0.1875, 0.1825
7804, 0.4375, -0.1875, 0.1825
7805, 0.5, -0.1875, 0.1825
7806, 0.5625, -0.1875, 0.1825
7807, 0.625, -0.1875, 0.1825
7808, 0.6875, -0.1875, 0.1825
7809, 0.75, -0.1875, 0.1825
7810, 0.8125, -0.1875, 0.1825
7811, 0.875, -0.1875, 0.1825
7812, 0.9375, -0.1875, 0.1825
7813, 1, -0.1875, 0.1825
7814, 1.0625, -0.1875, 0.1825
7815, 1.125, -0.1875, 0.1825
7816, 1.1875, -0.1875, 0.1825
7817, 1.25, -0.1875, 0.1825
7818, 1.3125, -0.1875, 0.1825
7819, 1.375, -0.1875, 0.1825
7820, 1.4375, -0.1875, 0.1825
7821, 1.5, -0.1875, 0.1825
7822, -0.5, -0.125, 0.1825
7823, -0.4375, -0.125, 0.1825
7824, -0.375, -0.125, 0.1825
7825, -0.3125, -0.125, 0.1825
7826, -0.25, -0.125, 0.1825
7827, -0.1875, -0.125, 0.1825
7828, -0.125, -0.125, 0.1825
7829, -0.0625, -0.125, 0.1825
7830, 0, -0.125, 0.1825
7831, 0.0625, -0.125, 0.1825
7832, 0.125, -0.125, 0.1825
7833, 0.1875, -0.125, 0.1825
7834, 0.25, -0.125, 0.1825
7835, 0.3125, -0.125, 0.1825
7836, 0.375, -0.125, 0.1825
7837, 0.4375, -0.125, 0.1825
7838, 0.5, -0.125, 0.1825
7839, 0.5625, -0.125, 0.1825
7840, 0.625, -0.125, 0.1825
7841, 0.6875, -0.125, 0.1825
7842, 0.75, -0.125, 0.1825
7843, 0.8125, -0.125, 0.1825
7844, 0.875, -0.125, 0.1825
7845, 0.9375, -0.125, 0.1825
7846, 1, -0.125, 0.1825
7847, 1.0625, -0.125, 0.1825
7848, 1.125, -0.125, 0.1825
7849, 1.1875, -0.125, 0.1825
7850, 1.25, -0.125, 0.1825
7851, 1.3125, -0.125, 0.1825
7852, 1.375, -0.125, 0.1825
7853, 1.4375, -0.125, 0.1825
7854, 1.5, -0.125, 0.1825
7855, -0.5, -0.0625, 0.1825
7856, -0.4375, -0.0625, 0.1825
7857, -0.375, -0.0625, 0.1825
7858, -0.3125, -0.0625, 0.1825
7859, -0.25, -0.0625, 0.1825
7860, -0.1875, -0.0625, 0.1825
7861, -0.125, -0.0625, 0.1825
7862, -0.0625, -0.0625, 0.1825
7863, 0, -0.0625, 0.1825
7864, 0.0625, -0.0625, 0.1825
7865, 0.125, -0.0625, 0.1825
7866, 0.1875, -0.0625, 0.1825
7867, 0.25, -0.0625, 0.1825
7868, 0.3125, -0.0625, 0.1825
7869, 0.375, -0.0625, 0.1825
7870, 0.4375, -0.0625, 0.1825
7871, 0.5, -0.0625, 0.1825
7872, 0.5625, -0.0625, 0.1825
7873, 0.625, -0.0625, 0.1825
7874, 0.6875, -0.0625, 0.1825
7875, 0.75, -0.0625, 0.1825
7876, 0.8125, -0.0625, 0.1825
7877, 0.875, -0.0625, 0.1825
7878, 0.9375, -0.0625, 0.1825
7879, 1, -0.0625, 0.1825
7880, 1.0625, -0.0625, 0.1825
7881, 1.125, -0.0625, 0.1825
7882, 1.1875, -0.0625, 0.1825
7883, 1.25, -0.0625, 0.1825
7884, 1.3125, -0.0625, 0.1825
7885, 1.375, -0.0625, 0.1825
7886, 1.4375, -0.0625, 0.1825
7887, 1.5, -0.0625, 0.1825
7888, -0.5, 0, 0.1825
7889, -0.4375, 0, 0.1825
7890, -0.375, 0, 0.1825
7891, -0.3125, 0, 0.1825
7892, -0.25, 0, 0.1825
7893, -0.1875, 0, 0.1825
7894, -0.125, 0, 0.1825
7895, -0.0625, 0, 0.1825
7896, 0, 0, 0.1825
7897, 0.0625, 0, 0.1825
7898, 0.125, 0, 0.1825
7899, 0.1875, 0, 0.1825
7900, 0.25, 0, 0.1825
7901, 0.3125, 0, 0.1825
7902, 0.375, 0, 0.1825
7903, 0.4375, 0, 0.1825
7904, 0.5, 0, 0.1825
7905, 0.5625, 0, 0.1825
7906, 0.625, 0, 0.1825
7907, 0.6875, 0, 0.1825
7908, 0.75, 0, 0.1825
7909, 0.8125, 0, 0.1825
7910, 0.875, 0, 0.1825
7911, 0.9375, 0, 0.1825
7912, 1, 0, 0.1825
7913, 1.0625, 0, 0.1825
7914, 1.125, 0, 0.1825
7915, 1.1875, 0, 0.1825
7916, 1.25, 0, 0.1825
7917, 1.3125, 0, 0.1825
7918, 1.375, 0, 0.1825
7919, 1.4375, 0, 0.1825
7920, 1.5, 0, 0.1825
7921, -0.5, 0.0625, 0.1825
7922, -0.4375, 0.0625, 0.1825
7923, -0.375, 0.0625, 0.1825
7924, -0.3125, 0.0625, 0.1825
7925, -0.25, 0.0625, 0.1825
7926, -0.1875, 0.0625, 0.1825
7927, -0.125, 0.0625, 0.1825
7928, -0.0625, 0.0625, 0.1825
7929, 0, 0.0625, 0.1825
7930, 0.0625, 0.0625, 0.1825
7931, 0.125, 0.0625, 0.1825
7932, 0.1875, 0.0625, 0.1825
7933, 0.25, 0.0625, 0.1825
7934, 0.3125, 0.0625, 0.1825
7935, 0.375, 0.0625, 0.1825
7936, 0.4375, 0.0625, 0.1825
7937, 0.5, 0.0625, 0.1825
7938, 0.5625, 0.0625, 0.1825
7939, 0.625, 0.0625, 0.1825
7940, 0.6875, 0.0625, 0.1825
7941, 0.75, 0.0625, 0.1825
7942, 0.8125, 0.0625, 0.1825
7943, 0.875, 0.0625, 0.1825
7944, 0.9375, 0.0625, 0.1825
7945, 1, 0.0625, 0.1825
7946, 1.0625, 0.0625, 0.1825
7947, 1.125, 0.0625, 0.1825
7948, 1.1875, 0.0625, 0.1825
7949, 1.25, 0.0625, 0.1825
7950, 1.3125, 0.0625, 0.1825
7951, 1.375, 0.0625, 0.1825
7952, 1.4375, 0.0625, 0.1825
7953, 1.5, 0.0625, 0.1825
7954, -0.5, 0.125, 0.1825
7955, -0.4375, 0.125, 0.1825
7956, -0.375, 0.125, 0.1825
7957, -0.3125, 0.125, 0.1825
7958, -0.25, 0.125, 0.1825
7959, -0.1875, 0.125, 0.1825
7960, -0.125, 0.125, 0.1825
7961, -0.0625, 0.125, 0.1825
7962, 0, 0.125, 0.1825
7963, 0.0625, 0.125, 0.1825
7964, 0.125, 0.125, 0.1825
7965, 0.1875, 0.125, 0.1825
7966, 0.25, 0.125, 0.1825
7967, 0.3125, 0.125, 0.1825
7968, 0.375, 0.125, 0.1825
7969, 0.4375, 0.125, 0.1825
7970, 0.5, 0.125, 0.1825
7971, 0.5625, 0.125, 0.1825
7972, 0.625, 0.125, 0.1825
7973, 0.6875, 0.125, 0.1825
7974, 0.75, 0.125, 0.1825
7975, 0.8125, 0.125, 0.1825
7976, 0.875, 0.125, 0.1825
7977, 0.9375, 0.125, 0.1825
7978, 1, 0.125, 0.1825
7979, 1.0625, 0.125, 0.1825
7980, 1.125, 0.125, 0.1825
7981, 1.1875, 0.125, 0.1825
7982, 1.25, 0.125, 0.1825
7983, 1.3125, 0.125, 0.1825
7984, 1.375, 0.125, 0.1825
7985, 1.4375, 0.125, 0.1825
7986, 1.5, 0.125, 0.1825
7987, -0.5, 0.1875, 0.1825
7988, -0.4375, 0.1875, 0.1825
7989, -0.375, 0.1875, 0.1825
7990, -0.3125, 0.1875, 0.1825
7991, -0.25, 0.1875, 0.1825
7992, -0.1875, 0.1875, 0.1825
7993, -0.125, 0.1875, 0.1825
7994, -0.0625, 0.1875, 0.1825
7995, 0, 0.1875, 0.1825
7996, 0.0625, 0.1875, 0.1825
7997, 0.125, 0.1875, 0.1825
7998, 0.1875, 0.1875, 0.1825
7999, 0.25, 0.1875, 0.1825
8000, 0.3125, 0.1875, 0.1825
8001, 0.375, 0.1875, 0.1825
8002, 0.4375, 0.1875, 0.1825
8003, 0.5, 0.1875, 0.1825
8004, 0.5625, 0.1875, 0.1825
8005, 0.625, 0.1875, 0.1825
8006, 0.6875, 0.1875, 0.1825
8007, 0.75, 0.1875, 0.1825
8008, 0.8125, 0.1875, 0.1825
8009, 0.875, 0.1875, 0.1825
8010, 0.9375, 0.1875, 0.1825
8011, 1, 0.1875, 0.1825
8012, 1.0625, 0.1875, 0.1825
8013, 1.125, 0.1875, 0.1825
8014, 1.1875, 0.1875, 0.1825
8015, 1.25, 0.1875, 0.1825
8016, 1.3125, 0.1875, 0.1825
8017, 1.375, 0.1875, 0.1825
8018, 1.4375, 0.1875, 0.1825
8019, 1.5, 0.1875, 0.1825
8020, -0.5, 0.25, 0.1825
8021, -0.4375, 0.25, 0.1825
8022, -0.375, 0.25, 0.1825
8023, -0.3125, 0.25, 0.1825
8024, -0.25, 0.25, 0.1825
8025, -0.1875, 0.25, 0.1825
8026, -0.125, 0.25, 0.1825
8027, -0.0625, 0.25, 0.1825
8028, 0, 0.25, 0.1825
8029, 0.0625, 0.25, 0.1825
8030, 0.125, 0.25, 0.1825
8031, 0.1875, 0.25, 0.1825
8032, 0.25, 0.25, 0.1825
8033, 0.3125, 0.25, 0.1825
8034, 0.375, 0.25, 0.1825
8035, 0.4375, 0.25, 0.1825
8036, 0.5, 0.25, 0.1825
8037, 0.5625, 0.25, 0.1825
8038, 0.625, 0.25, 0.1825
8039, 0.6875, 0.25, 0.1825
8040, 0.75, 0.25, 0.1825
8041, 0.8125, 0.25, 0.1825
8042, 0.875, 0.25, 0.1825
8043, 0.9375, 0.25, 0.1825
8044, 1, 0.25, 0.1825
8045, 1.0625, 0.25, 0.1825
8046, 1.125, 0.25, 0.1825
8047, 1.1875, 0.25, 0.1825
8048, 1.25, 0.25, 0.1825
8049, 1.3125, 0.25, 0.1825
8050, 1.375, 0.25, 0.1825
8051, 1.4375, 0.25, 0.1825
8052, 1.5, 0.25, 0.1825
8053, -0.5, 0.3125, 0.1825
8054, -0.4375, 0.3125, 0.1825
8055, -0.375, 0.3125, 0.1825
8056, -0.3125, 0.3125, 0.1825
8057, -0.25, 0.3125, 0.1825
8058, -0.1875, 0.3125, 0.1825
8059, -0.125, 0.3125, 0.1825
8060, -0.0625, 0.3125, 0.1825
8061, 0, 0.3125, 0.1825
8062, 0.0625, 0.3125, 0.1825
8063, 0.125, 0.3125, 0.1825
8064, 0.1875, 0.3125, 0.1825
8065, 0.25, 0.3125, 0.1825
8066, 0.3125, 0.3125, 0.1825
8067, 0.375, 0.3125, 0.1825
8068, 0.4375, 0.3125, 0.1825
8069, 0.5, 0.3125, 0.1825
8070, 0.5625, 0.3125, 0.1825
8071, 0.625, 0.3125, 0.1825
8072, 0.6875, 0.3125, 0.1825
8073, 0.75, 0.3125, 0.1825
8074, 0.8125, 0.3125, 0.1825
8075, 0.875, 0.3125, 0.1825
8076, 0.9375, 0.3125, 0.1825
8077, 1, 0.3125, 0.1825
8078, 1.0625, 0.3125, 0.1825
8079, 1.125, 0.3125, 0.1825
8080, 1.1875, 0.3125, 0.1825
8081, 1.25, 0.3125, 0.1825
8082, 1.3125, 0.3125, 0.1825
8083, 1.375, 0.3125, 0.1825
8084, 1.4375, 0.3125, 0.1825
8085, 1.5, 0.3125, 0.1825
8086, -0.5, 0.375, 0.1825
8087, -0.4375, 0.375, 0.1825
8088, -0.375, 0.375, 0.1825
8089, -0.3125, 0.375, 0.1825
8090, -0.25, 0.375, 0.1825
8091, -0.1875, 0.375, 0.1825
8092, -0.125, 0.375, 0.1825
8093, -0.0625, 0.375, 0.1825
8094, 0, 0.375, 0.1825
8095, 0.0625, 0.375, 0.1825
8096, 0.125, 0.375, 0.1825
8097, 0.1875, 0.375, 0.1825
8098, 0.25, 0.375, 0.1825
8099, 0.3125, 0.375, 0.1825
8100, 0.375, 0.375, 0.1825
8101, 0.4375, 0.375, 0.1825
8102, 0.5, 0.375, 0.1825
8103, 0.5625, 0.375, 0.1825
8104, 0.625, 0.375, 0.1825
8105, 0.6875, 0.375, 0.1825
8106, 0.75, 0.375, 0.1825
8107, 0.8125, 0.375, 0.1825
8108, 0.875, 0.375, 0.1825
8109, 0.9375, 0.375, 0.1825
8110, 1, 0.375, 0.1825
8111, 1.0625, 0.375, 0.1825
8112, 1.125, 0.375, 0.1825
8113, 1.1875, 0.375, 0.1825
8114, 1.25, 0.375, 0.1825
8115, 1.3125, 0.375, 0.1825
8116, 1.375, 0.375, 0.1825
8117, 1.4375, 0.375, 0.1825
8118, 1.5, 0.375, 0.1825
8119, -0.5, 0.4375, 0.1825
8120, -0.4375, 0.4375, 0.1825
8121, -0.375, 0.4375, 0.1825
8122, -0.3125, 0.4375, 0.1825
8123, -0.25, 0.4375, 0.1825
8124, -0.1875, 0.4375, 0.1825
8125, -0.125, 0.4375, 0.1825
8126, -0.0625, 0.4375, 0.1825
8127, 0, 0.4375, 0.1825
8128, 0.0625, 0.4375, 0.1825
8129, 0.125, 0.4375, 0.1825
8130, 0.1875, 0.4375, 0.1825
8131, 0.25, 0.4375, 0.1825
8132, 0.3125, 0.4375, 0.1825
8133, 0.375, 0.4375, 0.1825
8134, 0.4375, 0.4375, 0.1825
8135, 0.5, 0.4375, 0.1825
8136, 0.5625, 0.4375, 0.1825
8137, 0.625, 0.4375, 0.1825
8138, 0.6875, 0.4375, 0.1825
8139, 0.75, 0.4375, 0.1825
8140, 0.8125, 0.4375, 0.1825
8141, 0.875, 0.4375, 0.1825
8142, 0.9375, 0.4375, 0.1825
8143, 1, 0.4375, 0.1825
8144, 1.0625, 0.4375, 0.1825
8145, 1.125, 0.4375, 0.1825
8146, 1.1875, 0.4375, 0.1825
8147, 1.25, 0.4375, 0.1825
8148, 1.3125, 0.4375, 0.1825
8149, 1.375, 0.4375, 0.1825
8150, 1.4375, 0.4375, 0.1825
8151, 1.5, 0.4375, 0.1825
8152, -0.5, 0.5, 0.1825
8153, -0.4375, 0.5, 0.1825
8154, -0.375, 0.5, 0.1825
8155, -0.3125, 0.5, 0.1825
8156, -0.25, 0.5, 0.1825
8157, -0.1875, 0.5, 0.1825
8158, -0.125, 0.5, 0.1825
8159, -0.0625, 0.5, 0.1825
8160, 0, 0.5, 0.1825
8161, 0.0625, 0.5, 0.1825
8162, 0.125, 0.5, 0.1825
8163, 0.1875, 0.5, 0.1825
8164, 0.25, 0.5, 0.1825
8165, 0.3125, 0.5, 0.1825
8166, 0.375, 0.5, 0.1825
8167, 0.4375, 0.5, 0.1825
8168, 0.5, 0.5, 0.1825
8169, 0.5625, 0.5, 0.1825
8170, 0.625, 0.5, 0.1825
8171, 0.6875, 0.5, 0.1825
8172, 0.75, 0.5, 0.1825
8173, 0.8125, 0.5, 0.1825
8174, 0.875, 0.5, 0.1825
8175, 0.9375, 0.5, 0.1825
8176, 1, 0.5, 0.1825
8177, 1.0625, 0.5, 0.1825
8178, 1.125, 0.5, 0.1825
8179, 1.1875, 0.5, 0.1825
8180, 1.25, 0.5, 0.1825
8181, 1.3125, 0.5, 0.1825
8182, 1.375, 0.5, 0.1825
8183, 1.4375, 0.5, 0.1825
8184, 1.5, 0.5, 0.1825
8185, -0.5, 0.5625, 0.1825
8186, -0.4375, 0.5625, 0.1825
8187, -0.375, 0.5625, 0.1825
8188, -0.3125, 0.5625, 0.1825
8189, -0.25, 0.5625, 0.1825
8190, -0.1875, 0.5625, 0.1825
8191, -0.125, 0.5625, 0.1825
8192, -0.0625, 0.5625, 0.1825
8193, 0, 0.5625, 0.1825
8194, 0.0625, 0.5625, 0.1825
8195, 0.125, 0.5625, 0.1825
8196, 0.1875, 0.5625, 0.1825
8197, 0.25, 0.5625, 0.1825
8198, 0.3125, 0.5625, 0.1825
8199, 0.375, 0.5625, 0.1825
8200, 0.4375, 0.5625, 0.1825
8201, 0.5, 0.5625, 0.1825
8202, 0.5625, 0.5625, 0.1825
8203, 0.625, 0.5625, 0.1825
8204, 0.6875, 0.5625, 0.1825
8205, 0.75, 0.5625, 0.1825
8206, 0.8125, 0.5625, 0.1825
8207, 0.875, 0.5625, 0.1825
8208, 0.9375, 0.5625, 0.1825
8209, 1, 0.5625, 0.1825
8210, 1.0625, 0.5625, 0.1825
8211, 1.125, 0.5625, 0.1825
8212, 1.1875, 0.5625, 0.1825
8213, 1.25, 0.5625, 0.1825
8214, 1.3125, 0.5625, 0.1825
8215, 1.375, 0.5625, 0.1825
8216, 1.4375, 0.5625, 0.1825
8217, 1.5, 0.5625, 0.1825
8218, -0.5, 0.625, 0.1825
8219, -0.4375, 0.625, 0.1825
8220, -0.375, 0.625, 0.1825
8221, -0.3125, 0.625, 0.1825
8222, -0.25, 0.625, 0.1825
8223, -0.1875, 0.625, 0.1825
8224, -0.125, 0.625, 0.1825
8225, -0.0625, 0.625, 0.1825
8226, 0, 0.625, 0.1825
8227, 0.0625, 0.625, 0.1825
8228, 0.125, 0.625, 0.1825
8229, 0.1875, 0.625, 0.1825
8230, 0.25, 0.625, 0.1825
8231, 0.3125, 0.625, 0.1825
8232, 0.375, 0.625, 0.1825
8233, 0.4375, 0.625, 0.1825
8234, 0.5, 0.625, 0.1825
8235, 0.5625, 0.625, 0.1825
8236, 0.625, 0.625, 0.1825
8237, 0.6875, 0.625, 0.1825
8238, 0.75, 0.625, 0.1825
8239, 0.8125, 0.625, 0.1825
8240, 0.875, 0.625, 0.1825
8241, 0.9375, 0.625, 0.1825
8242, 1, 0.625, 0.1825
8243, 1.0625, 0.625, 0.1825
8244, 1.125, 0.625, 0.1825
8245, 1.1875, 0.625, 0.1825
8246, 1.25, 0.625, 0.1825
8247, 1.3125, 0.625, 0.1825
8248, 1.375, 0.625, 0.1825
8249, 1.4375, 0.625, 0.1825
8250, 1.5, 0.625, 0.1825
8251, -0.5, 0.6875, 0.1825
8252, -0.4375, 0.6875, 0.1825
8253, -0.375, 0.6875, 0.1825
8254, -0.3125, 0.6875, 0.1825
8255, -0.25, 0.6875, 0.1825
8256, -0.1875, 0.6875, 0.1825
8257, -0.125, 0.6875, 0.1825
8258, -0.0625, 0.6875, 0.1825
8259, 0, 0.6875, 0.1825
8260, 0.0625, 0.6875, 0.1825
8261, 0.125, 0.6875, 0.1825
8262, 0.1875, 0.6875, 0.1825
8263, 0.25, 0.6875, 0.1825
8264, 0.3125, 0.6875, 0.1825
8265, 0.375, 0.6875, 0.1825
8266, 0.4375, 0.6875, 0.1825
8267, 0.5, 0.6875, 0.1825
8268, 0.5625, 0.6875, 0.1825
8269, 0.625, 0.6875, 0.1825
8270, 0.6875, 0.6875, 0.1825
8271, 0.75, 0.6875, 0.1825
8272, 0.8125, 0.6875, 0.1825
8273, 0.875, 0.6875, 0.1825
8274, 0.9375, 0.6875, 0.1825
8275, 1, 0.6875, 0.1825
8276, 1.0625, 0.6875, 0.1825
8277, 1.125, 0.6875, 0.1825
8278, 1.1875, 0.6875, 0.1825
8279, 1.25, 0.6875, 0.1825
8280, 1.3125, 0.6875, 0.1825
8281, 1.375, 0.6875, 0.1825
8282, 1.4375, 0.6875, 0.1825
8283, 1.5, 0.6875, 0.1825
8284, -0.5, 0.75, 0.1825
8285, -0.4375, 0.75, 0.1825
8286, -0.375, 0.75, 0.1825
8287, -0.3125, 0.75, 0.1825
8288, -0.25, 0.75, 0.1825
8289, -0.1875, 0.75, 0.1825
8290, -0.125, 0.75, 0.1825
8291, -0.0625, 0.75, 0.1825
8292, 0, 0.75, 0.1825
8293, 0.0625, 0.75, 0.1825
8294, 0.125, 0.75, 0.1825
8295, 0.1875, 0.75, 0.1825
8296, 0.25, 0.75, 0.1825
8297, 0.3125, 0.75, 0.1825
8298, 0.375, 0.75, 0.1825
8299, 0.4375, 0.75, 0.1825
8300, 0.5, 0.75, 0.1825
8301, 0.5625, 0.75, 0.1825
8302, 0.625, 0.75, 0.1825
8303, 0.6875, 0.75, 0.1825
8304, 0.75, 0.75, 0.1825
8305, 0.8125, 0.75, 0.1825
8306, 0.875, 0.75, 0.1825
8307, 0.9375, 0.75, 0.1825
8308, 1, 0.75, 0.1825
8309, 1.0625, 0.75, 0.1825
8310, 1.125, 0.75, 0.1825
8311, 1.1875, 0.75, 0.1825
8312, 1.25, 0.75, 0.1825
8313, 1.3125, 0.75, 0.1825
8314, 1.375, 0.75, 0.1825
8315, 1.4375, 0.75, 0.1825
8316, 1.5, 0.75, 0.1825
8317, -0.5, 0.8125, 0.1825
8318, -0.4375, 0.8125, 0.1825
8319, -0.375, 0.8125, 0.1825
8320, -0.3125, 0.8125, 0.1825
8321, -0.25, 0.8125, 0.1825
8322, -0.1875, 0.8125, 0.1825
8323, -0.125, 0.8125, 0.1825
8324, -0.0625, 0.8125, 0.1825
8325, 0, 0.8125, 0.1825
8326, 0.0625, 0.8125, 0.1825
8327, 0.125, 0.8125, 0.1825
8328, 0.1875, 0.8125, 0.1825
8329, 0.25, 0.8125, 0.1825
8330, 0.3125, 0.8125, 0.1825
8331, 0.375, 0.8125, 0.1825
8332, 0.4375, 0.8125, 0.1825
8333, 0.5, 0.8125, 0.1825
8334, 0.5625, 0.8125, 0.1825
8335, 0.625, 0.8125, 0.1825
8336, 0.6875, 0.8125, 0.1825
8337, 0.75, 0.8125, 0.1825
8338, 0.8125, 0.8125, 0.1825
8339, 0.875, 0.8125, 0.1825
8340, 0.9375, 0.8125, 0.1825
8341, 1, 0.8125, 0.1825
8342, 1.0625, 0.8125, 0.1825
8343, 1.125, 0.8125, 0.1825
8344, 1.1875, 0.8125, 0.1825
8345, 1.25, 0.8125, 0.1825
8346, 1.3125, 0.8125, 0.1825
8347, 1.375, 0.8125, 0.1825
8348, 1.4375, 0.8125, 0.1825
8349, 1.5, 0.8125, 0.1825
8350, -0.5, 0.875, 0.1825
8351, -0.4375, 0.875, 0.1825
8352, -0.375, 0.875, 0.1825
8353, -0.3125, 0.875, 0.1825
8354, -0.25, 0.875, 0.1825
8355, -0.1875, 0.875, 0.1825
8356, -0.125, 0.875, 0.1825
8357, -0.0625, 0.875, 0.1825
8358, 0, 0.875, 0.1825
8359, 0.0625, 0.875, 0.1825
8360, 0.125, 0.875, 0.1825
8361, 0.1875, 0.875, 0.1825
8362, 0.25, 0.875, 0.1825
8363, 0.3125, 0.875, 0.1825
8364, 0.375, 0.875, 0.1825
8365, 0.4375, 0.875, 0.1825
8366, 0.5, 0.875, 0.1825
8367, 0.5625, 0.875, 0.1825
8368, 0.625, 0.875, 0.1825
8369, 0.6875, 0.875, 0.1825
8370, 0.75, 0.875, 0.1825
8371, 0.8125, 0.875, 0.1825
8372, 0.875, 0.875, 0.1825
8373, 0.9375, 0.875, 0.1825
8374, 1, 0.875, 0.1825
8375, 1.0625, 0.875, 0.1825
8376, 1.125, 0.875, 0.1825
8377, 1.1875, 0.875, 0.1825
8378, 1.25, 0.875, 0.1825
8379, 1.3125, 0.875, 0.1825
8380, 1.375, 0.875, 0.1825
8381, 1.4375, 0.875, 0.1825
8382, 1.5, 0.875, 0.1825
8383, -0.5, 0.9375, 0.1825
8384, -0.4375, 0.9375, 0.1825
8385, -0.375, 0.9375, 0.1825
8386, -0.3125, 0.9375, 0.1825
8387, -0.25, 0.9375, 0.1825
8388, -0.1875, 0.9375, 0.1825
8389, -0.125, 0.9375, 0.1825
8390, -0.0625, 0.9375, 0.1825
8391, 0, 0.9375, 0.1825
8392, 0.0625, 0.9375, 0.1825
8393, 0.125, 0.9375, 0.1825
8394, 0.1875, 0.9375, 0.1825
8395, 0.25, 0.9375, 0.1825
8396, 0.3125, 0.9375, 0.1825
8397, 0.375, 0.9375, 0.1825
8398, 0.4375, 0.9375, 0.1825
8399, 0.5, 0.9375, 0.1825
8400, 0.5625, 0.9375, 0.1825
8401, 0.625, 0.9375, 0.1825
8402, 0.6875, 0.9375, 0.1825
8403, 0.75, 0.9375, 0.1825
8404, 0.8125, 0.9375, 0.1825
8405, 0.875, 0.9375, 0.1825
8406, 0.9375, 0.9375, 0.1825
8407, 1, 0.9375, 0.1825
8408, 1.0625, 0.9375, 0.1825
8409, 1.125, 0.9375, 0.1825
8410, 1.1875, 0.9375, 0.1825
8411, 1.25, 0.9375, 0.1825
8412, 1.3125, 0.9375, 0.1825
8413, 1.375, 0.9375, 0.1825
8414, 1.4375, 0.9375, 0.1825
8415, 1.5, 0.9375, 0.1825
8416, -0.5, 1, 0.1825
8417, -0.4375, 1, 0.1825
8418, -0.375, 1, 0.1825
8419, -0.3125, 1, 0.1825
8420, -0.25, 1, 0.1825
8421, -0.1875, 1, 0.1825
8422, -0.125, 1, 0.1825
8423, -0.0625, 1, 0.1825
8424, 0, 1, 0.1825
8425, 0.0625, 1, 0.1825
8426, 0.125, 1, 0.1825
8427, 0.1875, 1, 0.1825
8428, 0.25, 1, 0.1825
8429, 0.3125, 1, 0.1825
8430, 0.375, 1, 0.1825
8431, 0.4375, 1, 0.1825
8432, 0.5, 1, 0.1825
8433, 0.5625, 1, 0.1825
8434, 0.625, 1, 0.1825
8435, 0.6875, 1, 0.1825
8436, 0.75, 1, 0.1825
8437, 0.8125, 1, 0.1825
8438, 0.875, 1, 0.1825
8439, 0.9375, 1, 0.1825
8440, 1, 1, 0.1825
8441, 1.0625, 1, 0.1825
8442, 1.125, 1, 0.1825
8443, 1.1875, 1, 0.1825
8444, 1.25, 1, 0.1825
8445, 1.3125, 1, 0.1825
8446, 1.375, 1, 0.1825
8447, 1.4375, 1, 0.1825
8448, 1.5, 1, 0.1825
8449, -0.5, 1.0625, 0.1825
8450, -0.4375, 1.0625, 0.1825
8451, -0.375, 1.0625, 0.1825
8452, -0.3125, 1.0625, 0.1825
8453, -0.25, 1.0625, 0.1825
8454, -0.1875, 1.0625, 0.1825
8455, -0.125, 1.0625, 0.1825
8456, -0.0625, 1.0625, 0.1825
8457, 0, 1.0625, 0.1825
8458, 0.0625, 1.0625, 0.1825
8459, 0.125, 1.0625, 0.1825
8460, 0.1875, 1.0625, 0.1825
8461, 0.25, 1.0625, 0.1825
8462, 0.3125, 1.0625, 0.1825
8463, 0.375, 1.0625, 0.1825
8464, 0.4375, 1.0625, 0.1825
8465, 0.5, 1.0625, 0.1825
8466, 0.5625, 1.0625, 0.1825
8467, 0.625, 1.0625, 0.1825
8468, 0.6875, 1.0625, 0.1825
8469, 0.75, 1.0625, 0.1825
8470, 0.8125, 1.0625, 0.1825
8471, 0.875, 1.0625, 0.1825
8472, 0.9375, 1.0625, 0.1825
8473, 1, 1.0625, 0.1825
8474, 1.0625, 1.0625, 0.1825
8475, 1.125, 1.0625, 0.1825
8476, 1.1875, 1.0625, 0.1825
8477, 1.25, 1.0625, 0.1825
8478, 1.3125, 1.0625, 0.1825
8479, 1.375, 1.0625, 0.1825
8480, 1.4375, 1.0625, 0.1825
8481, 1.5, 1.0625, 0.1825
8482, -0.5, 1.125, 0.1825
8483, -0.4375, 1.125, 0.1825
8484, -0.375, 1.125, 0.1825
8485, -0.3125, 1.125, 0.1825
8486, -0.25, 1.125, 0.1825
8487, -0.1875, 1.125, 0.1825
8488, -0.125, 1.125, 0.1825
8489, -0.0625, 1.125, 0.1825
8490, 0, 1.125, 0.1825
8491, 0.0625, 1.125, 0.1825
8492, 0.125, 1.125, 0.1825
8493, 0.1875, 1.125, 0.1825
8494, 0.25, 1.125, 0.1825
8495, 0.3125, 1.125, 0.1825
8496, 0.375, 1.125, 0.1825
8497, 0.4375, 1.125, 0.1825
8498, 0.5, 1.125, 0.1825
8499, 0.5625, 1.125, 0.1825
8500, 0.625, 1.125, 0.1825
8501, 0.6875, 1.125, 0.1825
8502, 0.75, 1.125, 0.1825
8503, 0.8125, 1.125, 0.1825
8504, 0.875, 1.125, 0.1825
8505, 0.9375, 1.125, 0.1825
8506, 1, 1.125, 0.1825
8507, 1.0625, 1.125, 0.1825
8508, 1.125, 1.125, 0.1825
8509, 1.1875, 1.125, 0.1825
8510, 1.25, 1.125, 0.1825
8511, 1.3125, 1.125, 0.1825
8512, 1.375, 1.125, 0.1825
8513, 1.4375, 1.125, 0.1825
8514, 1.5, 1.125, 0.1825
8515, -0.5, 1.1875, 0.1825
8516, -0.4375, 1.1875, 0.1825
8517, -0.375, 1.1875, 0.1825
8518, -0.3125, 1.1875, 0.1825
8519, -0.25, 1.1875, 0.1825
8520, -0.1875, 1.1875, 0.1825
8521, -0.125, 1.1875, 0.1825
8522, -0.0625, 1.1875, 0.1825
8523, 0, 1.1875, 0.1825
8524, 0.0625, 1.1875, 0.1825
8525, 0.125, 1.1875, 0.1825
8526, 0.1875, 1.1875, 0.1825
8527, 0.25, 1.1875, 0.1825
8528, 0.3125, 1.1875, 0.1825
8529, 0.375, 1.1875, 0.1825
8530, 0.4375, 1.1875, 0.1825
8531, 0.5, 1.1875, 0.1825
8532, 0.5625, 1.1875, 0.1825
8533, 0.625, 1.1875, 0.1825
8534, 0.6875, 1.1875, 0.1825
8535, 0.75, 1.1875, 0.1825
8536, 0.8125, 1.1875, 0.1825
8537, 0.875, 1.1875, 0.1825
8538, 0.9375, 1.1875, 0.1825
8539, 1, 1.1875, 0.1825
8540, 1.0625, 1.1875, 0.1825
8541, 1.125, 1.1875, 0.1825
8542, 1.1875, 1.1875, 0.1825
8543, 1.25, 1.1875, 0.1825
8544, 1.3125, 1.1875, 0.1825
8545, 1.375, 1.1875, 0.1825
8546, 1.4375, 1.1875, 0.1825
8547, 1.5, 1.1875, 0.1825
8548, -0.5, 1.25, 0.1825
8549, -0.4375, 1.25, 0.1825
8550, -0.375, 1.25, 0.1825
8551, -0.3125, 1.25, 0.1825
8552, -0.25, 1.25, 0.1825
8553, -0.1875, 1.25, 0.1825
8554, -0.125, 1.25, 0.1825
8555, -0.0625, 1.25, 0.1825
8556, 0, 1.25, 0.1825
8557, 0.0625, 1.25, 0.1825
8558, 0.125, 1.25, 0.1825
8559, 0.1875, 1.25, 0.1825
8560, 0.25, 1.25, 0.1825
8561, 0.3125, 1.25, 0.1825
8562, 0.375, 1.25, 0.1825
8563, 0.4375, 1.25, 0.1825
8564, 0.5, 1.25, 0.1825
8565, 0.5625, 1.25, 0.1825
8566, 0.625, 1.25, 0.1825
8567, 0.6875, 1.25, 0.1825
8568, 0.75, 1.25, 0.1825
8569, 0.8125, 1.25, 0.1825
8570, 0.875, 1.25, 0.1825
8571, 0.9375, 1.25, 0.1825
8572, 1, 1.25, 0.1825
8573, 1.0625, 1.25, 0.1825
8574, 1.125, 1.25, 0.1825
8575, 1.1875, 1.25, 0.1825
8576, 1.25, 1.25, 0.1825
8577, 1.3125, 1.25, 0.1825
8578, 1.375, 1.25, 0.1825
8579, 1.4375, 1.25, 0.1825
8580, 1.5, 1.25, 0.1825
8581, -0.5, 1.3125, 0.1825
8582, -0.4375, 1.3125, 0.1825
8583, -0.375, 1.3125, 0.1825
8584, -0.3125, 1.3125, 0.1825
8585, -0.25, 1.3125, 0.1825
8586, -0.1875, 1.3125, 0.1825
8587, -0.125, 1.3125, 0.1825
8588, -0.0625, 1.3125, 0.1825
8589, 0, 1.3125, 0.1825
8590, 0.0625, 1.3125, 0.1825
8591, 0.125, 1.3125, 0.1825
8592, 0.1875, 1.3125, 0.1825
8593, 0.25, 1.3125, 0.1825
8594, 0.3125, 1.3125, 0.1825
8595, 0.375, 1.3125, 0.1825
8596, 0.4375, 1.3125, 0.1825
8597, 0.5, 1.3125, 0.1825
8598, 0.5625, 1.3125, 0.1825
8599, 0.625, 1.3125, 0.1825
8600, 0.6875, 1.3125, 0.1825
8601, 0.75, 1.3125, 0.1825
8602, 0.8125, 1.3125, 0.1825
8603, 0.875, 1.3125, 0.1825
8604, 0.9375, 1.3125, 0.1825
8605, 1, 1.3125, 0.1825
8606, 1.0625, 1.3125, 0.1825
8607, 1.125, 1.3125, 0.1825
8608, 1.1875, 1.3125, 0.1825
8609, 1.25, 1.3125, 0.1825
8610, 1.3125, 1.3125, 0.1825
8611, 1.375, 1.3125, 0.1825
8612, 1.4375, 1.3125, 0.1825
8613, 1.5, 1.3125, 0.1825
8614, -0.5, 1.375, 0.1825
8615, -0.4375, 1.375, 0.1825
8616, -0.375, 1.375, 0.1825
8617, -0.3125, 1.375, 0.1825
8618, -0.25, 1.375, 0.1825
8619, -0.1875, 1.375, 0.1825
8620, -0.125, 1.375, 0.1825
8621, -0.0625, 1.375, 0.1825
8622, 0, 1.375, 0.1825
8623, 0.0625, 1.375, 0.1825
8624, 0.125, 1.375, 0.1825
8625, 0.1875, 1.375, 0.1825
8626, 0.25, 1.375, 0.1825
8627, 0.3125, 1.375, 0.1825
8628, 0.375, 1.375, 0.1825
8629, 0.4375, 1.375, 0.1825
8630, 0.5, 1.375, 0.1825
8631, 0.5625, 1.375, 0.1825
8632, 0.625, 1.375, 0.1825
8633, 0.6875, 1.375, 0.1825
8634, 0.75, 1.375, 0.1825
8635, 0.8125, 1.375, 0.1825
8636, 0.875, 1.375, 0.1825
8637, 0.9375, 1.375, 0.1825
8638, 1, 1.375, 0.1825
8639, 1.0625, 1.375, 0.1825
8640, 1.125, 1.375, 0.1825
8641, 1.1875, 1.375, 0.1825
8642, 1.25, 1.375, 0.1825
8643, 1.3125, 1.375, 0.1825
8644, 1.375, 1.375, 0.1825
8645, 1.4375, 1.375, 0.1825
8646, 1.5, 1.375, 0.1825
8647, -0.5, 1.4375, 0.1825
8648, -0.4375, 1.4375, 0.1825
8649, -0.375, 1.4375, 0.1825
8650, -0.3125, 1.4375, 0.1825
8651, -0.25, 1.4375, 0.1825
8652, -0.1875, 1.4375, 0.1825
8653, -0.125, 1.4375, 0.1825
8654, -0.0625, 1.4375, 0.1825
8655, 0, 1.4375, 0.1825
8656, 0.0625, 1.4375, 0.1825
8657, 0.125, 1.4375, 0.1825
8658, 0.1875, 1.4375, 0.1825
8659, 0.25, 1.4375, 0.1825
8660, 0.3125, 1.4375, 0.1825
8661, 0.375, 1.4375, 0.1825
8662, 0.4375, 1.4375, 0.1825
8663, 0.5, 1.4375, 0.1825
8664, 0.5625, 1.4375, 0.1825
8665, 0.625, 1.4375, 0.1825
8666, 0.6875, 1.4375, 0.1825
8667, 0.75, 1.4375, 0.1825
8668, 0.8125, 1.4375, 0.1825
8669, 0.875, 1.4375, 0.1825
8670, 0.9375, 1.4375, 0.1825
8671, 1, 1.4375, 0.1825
8672, 1.0625, 1.4375, 0.1825
8673, 1.125, 1.4375, 0.1825
8674, 1.1875, 1.4375, 0.1825
8675, 1.25, 1.4375, 0.1825
8676, 1.3125, 1.4375, 0.1825
8677, 1.375, 1.4375, 0.1825
8678, 1.4375, 1.4375, 0.1825
8679, 1.5, 1.4375, 0.1825
8680, -0.5, 1.5, 0.1825
8681, -0.4375, 1.5, 0.1825
8682, -0.375, 1.5, 0.1825
8683, -0.3125, 1.5, 0.1825
8684, -0.25, 1.5, 0.1825
8685, -0.1875, 1.5, 0.1825
8686, -0.125, 1.5, 0.1825
8687, -0.0625, 1.5, 0.1825
8688, 0, 1.5, 0.1825
8689, 0.0625, 1.5, 0.1825
8690, 0.125, 1.5, 0.1825
8691, 0.1875, 1.5, 0.1825
8692, 0.25, 1.5, 0.1825
8693, 0.3125, 1.5, 0.1825
8694, 0.375, 1.5, 0.1825
8695, 0.4375, 1.5, 0.1825
8696, 0.5, 1.5, 0.1825
8697, 0.5625, 1.5, 0.1825
8698, 0.625, 1.5, 0.1825
8699, 0.6875, 1.5, 0.1825
8700, 0.75, 1.5, 0.1825
8701, 0.8125, 1.5, 0.1825
8702, 0.875, 1.5, 0.1825
8703, 0.9375, 1.5, 0.1825
8704, 1, 1.5, 0.1825
8705, 1.0625, 1.5, 0.1825
8706, 1.125, 1.5, 0.1825
8707, 1.1875, 1.5, 0.1825
8708, 1.25, 1.5, 0.1825
8709, 1.3125, 1.5, 0.1825
8710, 1.375, 1.5, 0.1825
8711, 1.4375, 1.5, 0.1825
8712, 1.5, 1.5, 0.1825
8713, -0.5, -0.5, 0.21
8714, -0.4375, -0.5, 0.21
8715, -0.375, -0.5, 0.21
8716, -0.3125, -0.5, 0.21
8717, -0.25, -0.5, 0.21
8718, -0.1875, -0.5, 0.21
8719, -0.125, -0.5, 0.21
8720, -0.0625, -0.5, 0.21
8721, 0, -0.5, 0.21
8722, 0.0625, -0.5, 0.21
8723, 0.125, -0.5, 0.21
8724, 0.1875, -0.5, 0.21
8725, 0.25, -0.5, 0.21
8726, 0.3125, -0.5, 0.21
8727, 0.375, -0.5, 0.21
8728, 0.4375, -0.5, 0.21
8729, 0.5, -0.5, 0.21
8730, 0.5625, -0.5, 0.21
8731, 0.625, -0.5, 0.21
8732, 0.6875, -0.5, 0.21
8733, 0.75, -0.5, 0.21
8734, 0.8125, -0.5, 0.21
8735, 0.875, -0.5, 0.21
8736, 0.9375, -0.5, 0.21
8737, 1, -0.5, 0.21
8738, 1.0625, -0.5, 0.21
8739, 1.125, -0.5, 0.21
8740, 1.1875, -0.5, 0.21
8741, 1.25, -0.5, 0.21
8742, 1.3125, -0.5, 0.21
8743, 1.375, -0.5, 0.21
8744, 1.4375, -0.5, 0.21
8745, 1.5, -0.5, 0.21
8746, -0.5, -0.4375, 0.21
8747, -0.4375, -0.4375, 0.21
8748, -0.375, -0.4375, 0.21
8749, -0.3125, -0.4375, 0.21
8750, -0.25, -0.4375, 0.21
8751, -0.1875, -0.4375, 0.21
8752, -0.125, -0.4375, 0.21
8753, -0.0625, -0.4375, 0.21
8754, 0, -0.4375, 0.21
8755, 0.0625, -0.4375, 0.21
8756, 0.125, -0.4375, 0.21
8757, 0.1875, -0.4375, 0.21
8758, 0.25, -0.4375, 0.21
8759, 0.3125, -0.4375, 0.21
8760, 0.375, -0.4375, 0.21
8761, 0.4375, -0.4375, 0.21
8762, 0.5, -0.4375, 0.21
8763, 0.5625, -0.4375, 0.21
8764, 0.625, -0.4375, 0.21
8765, 0.6875, -0.4375, 0.21
8766, 0.75, -0.4375, 0.21
8767, 0.8125, -0.4375, 0.21
8768, 0.875, -0.4375, 0.21
8769, 0.9375, -0.4375, 0.21
8770, 1, -0.4375, 0.21
8771, 1.0625, -0.4375, 0.21
8772, 1.125, -0.4375, 0.21
8773, 1.1875, -0.4375, 0.21
8774, 1.25, -0.4375, 0.21
8775, 1.3125, -0.4375, 0.21
8776, 1.375, -0.4375, 0.21
8777, 1.4375, -0.4375, 0.21
8778, 1.5, -0.4375, 0.21
8779, -0.5, -0.375, 0.21
8780, -0.4375, -0.375, 0.21
8781, -0.375, -0.375, 0.21
8782, -0.3125, -0.375, 0.21
8783, -0.25, -0.375, 0.21
8784, -0.1875, -0.375, 0.21
8785, -0.125, -0.375, 0.21
8786, -0.0625, -0.375, 0.21
8787, 0, -0.375, 0.21
8788, 0.0625, -0.375, 0.21
8789, 0.125, -0.375, 0.21
8790, 0.1875, -0.375, 0.21
8791, 0.25, -0.375, 0.21
8792, 0.3125, -0.375, 0.21
8793, 0.375, -0.375, 0.21
8794, 0.4375, -0.375, 0.21
8795, 0.5, -0.375, 0.21
8796, 0.5625, -0.375, 0.21
8797, 0.625, -0.375, 0.21
8798, 0.6875, -0.375, 0.21
8799, 0.75, -0.375, 0.21
8800, 0.8125, -0.375, 0.21
8801, 0.875, -0.375, 0.21
8802, 0.9375, -0.375, 0.21
8803, 1, -0.375, 0.21
8804, 1.0625, -0.375, 0.21
8805, 1.125, -0.375, 0.21
8806, 1.1875, -0.375, 0.21
8807, 1.25, -0.375, 0.21
8808, 1.3125, -0.375, 0.21
8809, 1.375, -0.375, 0.21
8810, 1.4375, -0.375, 0.21
8811, 1.5, -0.375, 0.21
8812, -0.5, -0.3125, 0.21
8813, -0.4375, -0.3125, 0.21
8814, -0.375, -0.3125, 0.21
8815, -0.3125, -0.3125, 0.21
8816, -0.25, -0.3125, 0.21
8817, -0.1875, -0.3125, 0.21
8818, -0.125, -0.3125, 0.21
8819, -0.0625, -0.3125, 0.21
8820, 0, -0.3125, 0.21
8821, 0.0625, -0.3125, 0.21
8822, 0.125, -0.3125, 0.21
8823, 0.1875, -0.3125, 0.21
8824, 0.25, -0.3125, 0.21
8825, 0.3125, -0.3125, 0.21
8826, 0.375, -0.3125, 0.21
8827, 0.4375, -0.3125, 0.21
8828, 0.5, -0.3125, 0.21
8829, 0.5625, -0.3125, 0.21
8830, 0.625, -0.3125, 0.21
8831, 0.6875, -0.3125, 0.21
8832, 0.75, -0.3125, 0.21
8833, 0.8125, -0.3125, 0.21
8834, 0.875, -0.3125, 0.21
8835, 0.9375, -0.3125, 0.21
8836, 1, -0.3125, 0.21
8837, 1.0625, -0.3125, 0.21
8838, 1.125, -0.3125, 0.21
8839, 1.1875, -0.3125, 0.21
8840, 1.25, -0.3125, 0.21
8841, 1.3125, -0.3125, 0.21
8842, 1.375, -0.3125, 0.21
8843, 1.4375, -0.3125, 0.21
8844, 1.5, -0.3125, 0.21
8845, -0.5, -0.25, 0.21
8846, -0.4375, -0.25, 0.21
8847, -0.375, -0.25, 0.21
8848, -0.3125, -0.25, 0.21
8849, -0.25, -0.25, 0.21
8850, -0.1875, -0.25, 0.21
8851, -0.125, -0.25, 0.21
8852, -0.0625, -0.25, 0.21
8853, 0, -0.25, 0.21
8854, 0.0625, -0.25, 0.21
8855, 0.125, -0.25, 0.21
8856, 0.1875, -0.25, 0.21
8857, 0.25, -0.25, 0.21
8858, 0.3125, -0.25, 0.21
8859, 0.375, -0.25, 0.21
8860, 0.4375, -0.25, 0.21
8861, 0.5, -0.25, 0.21
8862, 0.5625, -0.25, 0.21
8863, 0.625, -0.25, 0.21
8864, 0.6875, -0.25, 0.21
8865, 0.75, -0.25, 0.21
8866, 0.8125, -0.25, 0.21
8867, 0.875, -0.25, 0.21
8868, 0.9375, -0.25, 0.21
8869, 1, -0.25, 0.21
8870, 1.0625, -0.25, 0.21
8871, 1.125, -0.25, 0.21
8872, 1.1875, -0.25, 0.21
8873, 1.25, -0.25, 0.21
8874, 1.3125, -0.25, 0.21
8875, 1.375, -0.25, 0.21
8876, 1.4375, -0.25, 0.21
8877, 1.5, -0.25, 0.21
8878, -0.5, -0.1875, 0.21
8879, -0.4375, -0.1875, 0.21
8880, -0.375, -0.1875, 0.21
8881, -0.3125, -0.1875, 0.21
8882, -0.25, -0.1875, 0.21
8883, -0.1875, -0.1875, 0.21
8884, -0.125, -0.1875, 0.21
8885, -0.0625, -0.1875, 0.21
8886, 0, -0.1875, 0.21
8887, 0.0625, -0.1875, 0.21
8888, 0.125, -0.1875, 0.21
8889, 0.1875, -0.1875, 0.21
8890, 0.25, -0.1875, 0.21
8891, 0.3125, -0.1875, 0.21
8892, 0.375, -0.1875, 0.21
8893, 0.4375, -0.1875, 0.21
8894, 0.5, -0.1875, 0.21
8895, 0.5625, -0.1875, 0.21
8896, 0.625, -0.1875, 0.21
8897, 0.6875, -0.1875, 0.21
8898, 0.75, -0.1875, 0.21
8899, 0.8125, -0.1875, 0.21
8900, 0.875, -0.1875, 0.21
8901, 0.9375, -0.1875, 0.21
8902, 1, -0.1875, 0.21
8903, 1.0625, -0.1875, 0.21
8904, 1.125, -0.1875, 0.21
8905, 1.1875, -0.1875, 0.21
8906, 1.25, -0.1875, 0.21
8907, 1.3125, -0.1875, 0.21
8908, 1.375, -0.1875, 0.21
8909, 1.4375, -0.1875, 0.21
8910, 1.5, -0.1875, 0.21
8911, -0.5, -0.125, 0.21
8912, -0.4375, -0.125, 0.21
8913, -0.375, -0.125, 0.21
8914, -0.3125, -0.125, 0.21
8915, -0.25, -0.125, 0.21
8916, -0.1875, -0.125, 0.21
8917, -0.125, -0.125, 0.21
8918, -0.0625, -0.125, 0.21
8919, 0, -0.125, 0.21
8920, 0.0625, -0.125, 0.21
8921, 0.125, -0.125, 0.21
8922, 0.1875, -0.125, 0.21
8923, 0.25, -0.125, 0.21
8924, 0.3125, -0.125, 0.21
8925, 0.375, -0.125, 0.21
8926, 0.4375, -0.125, 0.21
8927, 0.5, -0.125, 0.21
8928, 0.5625, -0.125, 0.21
8929, 0.625, -0.125, 0.21
8930, 0.6875, -0.125, 0.21
8931, 0.75, -0.125, 0.21
8932, 0.8125, -0.125, 0.21
8933, 0.875, -0.125, 0.21
8934, 0.9375, -0.125, 0.21
8935, 1, -0.125, 0.21
8936, 1.0625, -0.125, 0.21
8937, 1.125, -0.125, 0.21
8938, 1.1875, -0.125, 0.21
8939, 1.25, -0.125, 0.21
8940, 1.3125, -0.125, 0.21
8941, 1.375, -0.125, 0.21
8942, 1.4375, -0.125, 0.21
8943, 1.5, -0.125, 0.21
8944, -0.5, -0.0625, 0.21
8945, -0.4375, -0.0625, 0.21
8946, -0.375, -0.0625, 0.21
8947, -0.3125, -0.0625, 0.21
8948, -0.25, -0.0625, 0.21
8949, -0.1875, -0.0625, 0.21
8950, -0.125, -0.0625, 0.21
8951, -0.0625, -0.0625, 0.21
8952, 0, -0.0625, 0.21
8953, 0.0625, -0.0625, 0.21
8954, 0.125, -0.0625, 0.21
8955, 0.1875, -0.0625, 0.21
8956, 0.25, -0.0625, 0.21
8957, 0.3125, -0.0625, 0.21
8958, 0.375, -0.0625, 0.21
8959, 0.4375, -0.0625, 0.21
8960, 0.5, -0.0625, 0.21
8961, 0.5625, -0.0625, 0.21
8962, 0.625, -0.0625, 0.21
8963, 0.6875, -0.0625, 0.21
8964, 0.75, -0.0625, 0.21
8965, 0.8125, -0.0625, 0.21
8966, 0.875, -0.0625, 0.21
8967, 0.9375, -0.0625, 0.21
8968, 1, -0.0625, 0.21
8969, 1.0625, -0.0625, 0.21
8970, 1.125, -0.0625, 0.21
8971, 1.1875, -0.0625, 0.21
8972, 1.25, -0.0625, 0.21
8973, 1.3125, -0.0625, 0.21
8974, 1.375, -0.0625, 0.21
8975, 1.4375, -0.0625, 0.21
8976, 1.5, -0.0625, 0.21
8977, -0.5, 0, 0.21
8978, -0.4375, 0, 0.21
8979, -0.375, 0, 0.21
8980, -0.3125, 0, 0.21
8981, -0.25, 0, 0.21
8982, -0.1875, 0, 0.21
8983, -0.125, 0, 0.21
8984, -0.0625, 0, 0.21
8985, 0, 0, 0.21
8986, 0.0625, 0, 0.21
8987, 0.125, 0, 0.21
8988, 0.1875, 0, 0.21
8989, 0.25, 0, 0.21
8990, 0.3125, 0, 0.21
8991, 0.375, 0, 0.21
8992, 0.4375, 0, 0.21
8993, 0.5, 0, 0.21
8994, 0.5625, 0, 0.21
8995, 0.625, 0, 0.21
8996, 0.6875, 0, 0.21
8997, 0.75, 0, 0.21
8998, 0.8125, 0, 0.21
8999, 0.875, 0, 0.21
9000, 0.9375, 0, 0.21
9001, 1, 0, 0.21
9002, 1.0625, 0, 0.21
9003, 1.125, 0, 0.21
9004, 1.1875, 0, 0.21
9005, 1.25, 0, 0.21
9006, 1.3125, 0, 0.21
9007, 1.375, 0, 0.21
9008, 1.4375, 0, 0.21
9009, 1.5, 0, 0.21
9010, -0.5, 0.0625, 0.21
9011, -0.4375, 0.0625, 0.21
9012, -0.375, 0.0625, 0.21
9013, -0.3125, 0.0625, 0.21
9014, -0.25, 0.0625, 0.21
9015, -0.1875, 0.0625, 0.21
9016, -0.125, 0.0625, 0.21
9017, -0.0625, 0.0625, 0.21
9018, 0, 0.0625, 0.21
9019, 0.0625, 0.0625, 0.21
9020, 0.125, 0.0625, 0.21
9021, 0.1875, 0.0625, 0.21
9022, 0.25, 0.0625, 0.21
9023, 0.3125, 0.0625, 0.21
9024, 0.375, 0.0625, 0.21
9025, 0.4375, 0.0625, 0.21
9026, 0.5, 0.0625, 0.21
9027, 0.5625, 0.0625, 0.21
9028, 0.625, 0.0625, 0.21
9029, 0.6875, 0.0625, 0.21
9030, 0.75, 0.0625, 0.21
9031, 0.8125, 0.0625, 0.21
9032, 0.875, 0.0625, 0.21
9033, 0.9375, 0.0625, 0.21
9034, 1, 0.0625, 0.21
9035, 1.0625, 0.0625, 0.21
9036, 1.125, 0.0625, 0.21
9037, 1.1875, 0.0625, 0.21
9038, 1.25, 0.0625, 0.21
9039, 1.3125, 0.0625, 0.21
9040, 1.375, 0.0625, 0.21
9041, 1.4375, 0.0625, 0.21
9042, 1.5, 0.0625, 0.21
9043, -0.5, 0.125, 0.21
9044, -0.4375, 0.125, 0.21
9045, -0.375, 0.125, 0.21
9046, -0.3125, 0.125, 0.21
9047, -0.25, 0.125, 0.21
9048, -0.1875, 0.125, 0.21
9049, -0.125, 0.125, 0.21
9050, -0.0625, 0.125, 0.21
9051, 0, 0.125, 0.21
9052, 0.0625, 0.125, 0.21
9053, 0.125, 0.125, 0.21
9054, 0.1875, 0.125, 0.21
9055, 0.25, 0.125, 0.21
9056, 0.3125, 0.125, 0.21
9057, 0.375, 0.125, 0.21
9058, 0.4375, 0.125, 0.21
9059, 0.5, 0.125, 0.21
9060, 0.5625, 0.125, 0.21
9061, 0.625, 0.125, 0.21
9062, 0.6875, 0.125, 0.21
9063, 0.75, 0.125, 0.21
9064, 0.8125, 0.125, 0.21
9065, 0.875, 0.125, 0.21
9066, 0.9375, 0.125, 0.21
9067, 1, 0.125, 0.21
9068, 1.0625, 0.125, 0.21
9069, 1.125, 0.125, 0.21
9070, 1.1875, 0.125, 0.21
9071, 1.25, 0.125, 0.21
9072, 1.3125, 0.125, 0.21
9073, 1.375, 0.125, 0.21
9074, 1.4375, 0.125, 0.21
9075, 1.5, 0.125, 0.21
9076, -0.5, 0.1875, 0.21
9077, -0.4375, 0.1875, 0.21
9078, -0.375, 0.1875, 0.21
9079, -0.3125, 0.1875, 0.21
9080, -0.25, 0.1875, 0.21
9081, -0.1875, 0.1875, 0.21
9082, -0.125, 0.1875, 0.21
9083, -0.0625, 0.1875, 0.21
9084, 0, 0.1875, 0.21
9085, 0.0625, 0.1875, 0.21
9086, 0.125, 0.1875, 0.21
9087, 0.1875, 0.1875, 0.21
9088, 0.25, 0.1875, 0.21
9089, 0.3125, 0.1875, 0.21
9090, 0.375, 0.1875, 0.21
9091, 0.4375, 0.1875, 0.21
9092, 0.5, 0.1875, 0.21
9093, 0.5625, 0.1875, 0.21
9094, 0.625, 0.1875, 0.21
9095, 0.6875, 0.1875, 0.21
9096, 0.75, 0.1875, 0.21
9097, 0.8125, 0.1875, 0.21
9098, 0.875, 0.1875, 0.21
9099, 0.9375, 0.1875, 0.21
9100, 1, 0.1875, 0.21
9101, 1.0625, 0.1875, 0.21
9102, 1.125, 0.1875, 0.21
9103, 1.1875, 0.1875, 0.21
9104, 1.25, 0.1875, 0.21
9105, 1.3125, 0.1875, 0.21
9106, 1.375, 0.1875, 0.21
9107, 1.4375, 0.1875, 0.21
9108, 1.5, 0.1875, 0.21
9109, -0.5, 0.25, 0.21
9110, -0.4375, 0.25, 0.21
9111, -0.375, 0.25, 0.21
9112, -0.3125, 0.25, 0.21
9113, -0.25, 0.25, 0.21
9114, -0.1875, 0.25, 0.21
9115, -0.125, 0.25, 0.21
9116, -0.0625, 0.25, 0.21
9117, 0, 0.25, 0.21
9118, 0.0625, 0.25, 0.21
9119, 0.125, 0.25, 0.21
9120, 0.1875, 0.25, 0.21
9121, 0.25, 0.25, 0.21
9122, 0.3125, 0.25, 0.21
9123, 0.375, 0.25, 0.21
9124, 0.4375, 0.25, 0.21
9125, 0.5, 0.25, 0.21
9126, 0.5625, 0.25, 0.21
9127, 0.625, 0.25, 0.21
9128, 0.6875, 0.25, 0.21
9129, 0.75, 0.25, 0.21
9130, 0.8125, 0.25, 0.21
9131, 0.875, 0.25, 0.21
9132, 0.9375, 0.25, 0.21
9133, 1, 0.25, 0.21
9134, 1.0625, 0.25, 0.21
9135, 1.125, 0.25, 0.21
9136, 1.1875, 0.25, 0.21
9137, 1.25, 0.25, 0.21
9138, 1.3125, 0.25, 0.21
9139, 1.375, 0.25, 0.21
9140, 1.4375, 0.25, 0.21
9141, 1.5, 0.25, 0.21
9142, -0.5, 0.3125, 0.21
9143, -0.4375, 0.3125, 0.21
9144, -0.375, 0.3125, 0.21
9145, -0.3125, 0.3125, 0.21
9146, -0.25, 0.3125, 0.21
9147, -0.1875, 0.3125, 0.21
9148, -0.125, 0.3125, 0.21
9149, -0.0625, 0.3125, 0.21
9150, 0, 0.3125, 0.21
9151, 0.0625, 0.3125, 0.21
9152, 0.125, 0.3125, 0.21
9153, 0.1875, 0.3125, 0.21
9154, 0.25, 0.3125, 0.21
9155, 0.3125, 0.3125, 0.21
9156, 0.375, 0.3125, 0.21
9157, 0.4375, 0.3125, 0.21
9158, 0.5, 0.3125, 0.21
9159, 0.5625, 0.3125, 0.21
9160, 0.625, 0.3125, 0.21
9161, 0.6875, 0.3125, 0.21
9162, 0.75, 0.3125, 0.21
9163, 0.8125, 0.3125, 0.21
9164, 0.875, 0.3125, 0.21
9165, 0.9375, 0.3125, 0.21
9166, 1, 0.3125, 0.21
9167, 1.0625, 0.3125, 0.21
9168, 1.125, 0.3125, 0.21
9169, 1.1875, 0.3125, 0.21
9170, 1.25, 0.3125, 0.21
9171, 1.3125, 0.3125, 0.21
9172, 1.375, 0.3125, 0.21
9173, 1.4375, 0.3125, 0.21
9174, 1.5, 0.3125, 0.21
9175, -0.5, 0.375, 0.21
9176, -0.4375, 0.375, 0.21
9177, -0.375, 0.375, 0.21
9178, -0.3125, 0.375, 0.21
9179, -0.25, 0.375, 0.21
9180, -0.1875, 0.375, 0.21
9181, -0.125, 0.375, 0.21
9182, -0.0625, 0.375, 0.21
9183, 0, 0.375, 0.21
9184, 0.0625, 0.375, 0.21
9185, 0.125, 0.375, 0.21
9186, 0.1875, 0.375, 0.21
9187, 0.25, 0.375, 0.21
9188, 0.3125, 0.375, 0.21
9189, 0.375, 0.375, 0.21
9190, 0.4375, 0.375, 0.21
9191, 0.5, 0.375, 0.21
9192, 0.5625, 0.375, 0.21
9193, 0.625, 0.375, 0.21
9194, 0.6875, 0.375, 0.21
9195, 0.75, 0.375, 0.21
9196, 0.8125, 0.375, 0.21
9197, 0.875, 0.375, 0.21
9198, 0.9375, 0.375, 0.21
9199, 1, 0.375, 0.21
9200, 1.0625, 0.375, 0.21
9201, 1.125, 0.375, 0.21
9202, 1.1875, 0.375, 0.21
9203, 1.25, 0.375, 0.21
9204, 1.3125, 0.375, 0.21
9205, 1.375, 0.375, 0.21
9206, 1.4375, 0.375, 0.21
9207, 1.5, 0.375, 0.21
9208, -0.5, 0.4375, 0.21
9209, -0.4375, 0.4375, 0.21
9210, -0.375, 0.4375, 0.21
9211, -0.3125, 0.4375, 0.21
9212, -0.25, 0.4375, 0.21
9213, -0.1875, 0.4375, 0.21
9214, -0.125, 0.4375, 0.21
9215, -0.0625, 0.4375, 0.21
9216, 0, 0.4375, 0.21
9217, 0.0625, 0.4375, 0.21
9218, 0.125, 0.4375, 0.21
9219, 0.1875, 0.4375, 0.21
9220, 0.25, 0.4375, 0.21
9221, 0.3125, 0.4375, 0.21
9222, 0.375, 0.4375, 0.21
9223, 0.4375, 0.4375, 0.21
9224, 0.5, 0.4375, 0.21
9225, 0.5625, 0.4375, 0.21
9226, 0.625, 0.4375, 0.21
9227, 0.6875, 0.4375, 0.21
9228, 0.75, 0.4375, 0.21
9229, 0.8125, 0.4375, 0.21
9230, 0.875, 0.4375, 0.21
9231, 0.9375, 0.4375, 0.21
9232, 1, 0.4375, 0.21
9233, 1.0625, 0.4375, 0.21
9234, 1.125, 0.4375, 0.21
9235, 1.1875, 0.4375, 0.21
9236, 1.25, 0.4375, 0.21
9237, 1.3125, 0.4375, 0.21
9238, 1.375, 0.4375, 0.21
9239, 1.4375, 0.4375, 0.21
9240, 1.5, 0.4375, 0.21
9241, -0.5, 0.5, 0.21
9242, -0.4375, 0.5, 0.21
9243, -0.375, 0.5, 0.21
9244, -0.3125, 0.5, 0.21
9245, -0.25, 0.5, 0.21
9246, -0.1875, 0.5, 0.21
9247, -0.125, 0.5, 0.21
9248, -0.0625, 0.5, 0.21
9249, 0, 0.5, 0.21
9250, 0.0625, 0.5, 0.21
9251, 0.125, 0.5, 0.21
9252, 0.1875, 0.5, 0.21
9253, 0.25, 0.5, 0.21
9254, 0.3125, 0.5, 0.21
9255, 0.375, 0.5, 0.21
9256, 0.4375, 0.5, 0.21
9257, 0.5, 0.5, 0.21
9258, 0.5625, 0.5, 0.21
9259, 0.625, 0.5, 0.21
9260, 0.6875, 0.5, 0.21
9261, 0.75, 0.5, 0.21
9262, 0.8125, 0.5, 0.21
9263, 0.875, 0.5, 0.21
9264, 0.9375, 0.5, 0.21
9265, 1, 0.5, 0.21
9266, 1.0625, 0.5, 0.21
9267, 1.125, 0.5, 0.21
9268, 1.1875, 0.5, 0.21
9269, 1.25, 0.5, 0.21
9270, 1.3125, 0.5, 0.21
9271, 1.375, 0.5, 0.21
9272, 1.4375, 0.5, 0.21
9273, 1.5, 0.5, 0.21
9274, -0.5, 0.5625, 0.21
9275, -0.4375, 0.5625, 0.21
9276, -0.375, 0.5625, 0.21
9277, -0.3125, 0.5625, 0.21
9278, -0.25, 0.5625, 0.21
9279, -0.1875, 0.5625, 0.21
9280, -0.125, 0.5625, 0.21
9281, -0.0625, 0.5625, 0.21
9282, 0, 0.5625, 0.21
9283, 0.0625, 0.5625, 0.21
9284, 0.125, 0.5625, 0.21
9285, 0.1875, 0.5625, 0.21
9286, 0.25, 0.5625, 0.21
9287, 0.3125, 0.5625, 0.21
9288, 0.375, 0.5625, 0.21
9289, 0.4375, 0.5625, 0.21
9290, 0.5, 0.5625, 0.21
9291, 0.5625, 0.5625, 0.21
9292, 0.625, 0.5625, 0.21
9293, 0.6875, 0.5625, 0.21
9294, 0.75, 0.5625, 0.21
9295, 0.8125, 0.5625, 0.21
9296, 0.875, 0.5625, 0.21
9297, 0.9375, 0.5625, 0.21
9298, 1, 0.5625, 0.21
9299, 1.0625, 0.5625, 0.21
9300, 1.125, 0.5625, 0.21
9301, 1.1875, 0.5625, 0.21
9302, 1.25, 0.5625, 0.21
9303, 1.3125, 0.5625, 0.21
9304, 1.375, 0.5625, 0.21
9305, 1.4375, 0.5625, 0.21
9306, 1.5, 0.5625, 0.21
9307, -0.5, 0.625, 0.21
9308, -0.4375, 0.625, 0.21
9309, -0.375, 0.625, 0.21
9310, -0.3125, 0.625, 0.21
9311, -0.25, 0.625, 0.21
9312, -0.1875, 0.625, 0.21
9313, -0.125, 0.625, 0.21
9314, -0.0625, 0.625, 0.21
9315, 0, 0.625, 0.21
9316, 0.0625, 0.625, 0.21
9317, 0.125, 0.625, 0.21
9318, 0.1875, 0.625, 0.21
9319, 0.25, 0.625, 0.21
9320, 0.3125, 0.625, 0.21
9321, 0.375, 0.625, 0.21
9322, 0.4375, 0.625, 0.21
9323, 0.5, 0.625, 0.21
9324, 0.5625, 0.625, 0.21
9325, 0.625, 0.625, 0.21
9326, 0.6875, 0.625, 0.21
9327, 0.75, 0.625, 0.21
9328, 0.8125, 0.625, 0.21
9329, 0.875, 0.625, 0.21
9330, 0.9375, 0.625, 0.21
9331, 1, 0.625, 0.21
9332, 1.0625, 0.625, 0.21
9333, 1.125, 0.625, 0.21
9334, 1.1875, 0.625, 0.21
9335, 1.25, 0.625, 0.21
9336, 1.3125, 0.625, 0.21
9337, 1.375, 0.625, 0.21
9338, 1.4375, 0.625, 0.21
9339, 1.5, 0.625, 0.21
9340, -0.5, 0.6875, 0.21
9341, -0.4375, 0.6875, 0.21
9342, -0.375, 0.6875, 0.21
9343, -0.3125, 0.6875, 0.21
9344, -0.25, 0.6875, 0.21
9345, -0.1875, 0.6875, 0.21
9346, -0.125, 0.6875, 0.21
9347, -0.0625, 0.6875, 0.21
9348, 0, 0.6875, 0.21
9349, 0.0625, 0.6875, 0.21
9350, 0.125, 0.6875, 0.21
9351, 0.1875, 0.6875, 0.21
9352, 0.25, 0.6875, 0.21
9353, 0.3125, 0.6875, 0.21
9354, 0.375, 0.6875, 0.21
9355, 0.4375, 0.6875, 0.21
9356, 0.5, 0.6875, 0.21
9357, 0.5625, 0.6875, 0.21
9358, 0.625, 0.6875, 0.21
9359, 0.6875, 0.6875, 0.21
9360, 0.75, 0.6875, 0.21
9361, 0.8125, 0.6875, 0.21
9362, 0.875, 0.6875, 0.21
9363, 0.9375, 0.6875, 0.21
9364, 1, 0.6875, 0.21
9365, 1.0625, 0.6875, 0.21
9366, 1.125, 0.6875, 0.21
9367, 1.1875, 0.6875, 0.21
9368, 1.25, 0.6875, 0.21
9369, 1.3125, 0.6875, 0.21
9370, 1.375, 0.6875, 0.21
9371, 1.4375, 0.6875, 0.21
9372, 1.5, 0.6875, 0.21
9373, -0.5, 0.75, 0.21
9374, -0.4375, 0.75, 0.21
9375, -0.375, 0.75, 0.21
9376, -0.3125, 0.75, 0.21
9377, -0.25, 0.75, 0.21
9378, -0.1875, 0.75, 0.21
9379, -0.125, 0.75, 0.21
9380, -0.0625, 0.75, 0.21
9381, 0, 0.75, 0.21
9382, 0.0625, 0.75, 0.21
9383, 0.125, 0.75, 0.21
9384, 0.1875, 0.75, 0.21
9385, 0.25, 0.75, 0.21
9386, 0.3125, 0.75, 0.21
9387, 0.375, 0.75, 0.21
9388, 0.4375, 0.75, 0.21
9389, 0.5, 0.75, 0.21
9390, 0.5625, 0.75, 0.21
9391, 0.625, 0.75, 0.21
9392, 0.6875, 0.75, 0.21
9393, 0.75, 0.75, 0.21
9394, 0.8125, 0.75, 0.21
9395, 0.875, 0.75, 0.21
9396, 0.9375, 0.75, 0.21
9397, 1, 0.75, 0.21
9398, 1.0625, 0.75, 0.21
9399, 1.125, 0.75, 0.21
9400, 1.1875, 0.75, 0.21
9401, 1.25, 0.75, 0.21
9402, 1.3125, 0.75, 0.21
9403, 1.375, 0.75, 0.21
9404, 1.4375, 0.75, 0.21
9405, 1.5, 0.75, 0.21
9406, -0.5, 0.8125, 0.21
9407, -0.4375, 0.8125, 0.21
9408, -0.375, 0.8125, 0.21
9409, -0.3125, 0.8125, 0.21
9410, -0.25, 0.8125, 0.21
9411, -0.1875, 0.8125, 0.21
9412, -0.125, 0.8125, 0.21
9413, -0.0625, 0.8125, 0.21
9414, 0, 0.8125, 0.21
9415, 0.0625, 0.8125, 0.21
9416, 0.125, 0.8125, 0.21
9417, 0.1875, 0.8125, 0.21
9418, 0.25, 0.8125, 0.21
9419, 0.3125, 0.8125, 0.21
9420, 0.375, 0.8125, 0.21
9421, 0.4375, 0.8125, 0.21
9422, 0.5, 0.8125, 0.21
9423, 0.5625, 0.8125, 0.21
9424, 0.625, 0.8125, 0.21
9425, 0.6875, 0.8125, 0.21
9426, 0.75, 0.8125, 0.21
9427, 0.8125, 0.8125, 0.21
9428, 0.875, 0.8125, 0.21
9429, 0.9375, 0.8125, 0.21
9430, 1, 0.8125, 0.21
9431, 1.0625, 0.8125, 0.21
9432, 1.125, 0.8125, 0.21
9433, 1.1875, 0.8125, 0.21
9434, 1.25, 0.8125, 0.21
9435, 1.3125, 0.8125, 0.21
9436, 1.375, 0.8125, 0.21
9437, 1.4375, 0.8125, 0.21
9438, 1.5, 0.8125, 0.21
9439, -0.5, 0.875, 0.21
9440, -0.4375, 0.875, 0.21
9441, -0.375, 0.875, 0.21
9442, -0.3125, 0.875, 0.21
9443, -0.25, 0.875, 0.21
9444, -0.1875, 0.875, 0.21
9445, -0.125, 0.875, 0.21
9446, -0.0625, 0.875, 0.21
9447, 0, 0.875, 0.21
9448, 0.0625, 0.875, 0.21
9449, 0.125, 0.875, 0.21
9450, 0.1875, 0.875, 0.21
9451, 0.25, 0.875, 0.21
9452, 0.3125, 0.875, 0.21
9453, 0.375, 0.875, 0.21
9454, 0.4375, 0.875, 0.21
9455, 0.5, 0.875, 0.21
9456, 0.5625, 0.875, 0.21
9457, 0.625, 0.875, 0.21
9458, 0.6875, 0.875, 0.21
9459, 0.75, 0.875, 0.21
9460, 0.8125, 0.875, 0.21
9461, 0.875, 0.875, 0.21
9462, 0.9375, 0.875, 0.21
9463, 1, 0.875, 0.21
9464, 1.0625, 0.875, 0.21
9465, 1.125, 0.875, 0.21
9466, 1.1875, 0.875, 0.21
9467, 1.25, 0.875, 0.21
9468, 1.3125, 0.875, 0.21
9469, 1.375, 0.875, 0.21
9470, 1.4375, 0.875, 0.21
9471, 1.5, 0.875, 0.21
9472, -0.5, 0.9375, 0.21
9473, -0.4375, 0.9375, 0.21
9474, -0.375, 0.9375, 0.21
9475, -0.3125, 0.9375, 0.21
9476, -0.25, 0.9375, 0.21
9477, -0.1875, 0.9375, 0.21
9478, -0.125, 0.9375, 0.21
9479, -0.0625, 0.9375, 0.21
9480, 0, 0.9375, 0.21
9481, 0.0625, 0.9375, 0.21
9482, 0.125, 0.9375, 0.21
9483, 0.1875, 0.9375, 0.21
9484, 0.25, 0.9375, 0.21
9485, 0.3125, 0.9375, 0.21
9486, 0.375, 0.9375, 0.21
9487, 0.4375, 0.9375, 0.21
9488, 0.5, 0.9375, 0.21
9489, 0.5625, 0.9375, 0.21
9490, 0.625, 0.9375, 0.21
9491, 0.6875, 0.9375, 0.21
9492, 0.75, 0.9375, 0.21
9493, 0.8125, 0.9375, 0.21
9494, 0.875, 0.9375, 0.21
9495, 0.9375, 0.9375, 0.21
9496, 1, 0.9375, 0.21
9497, 1.0625, 0.9375, 0.21
9498, 1.125, 0.9375, 0.21
9499, 1.1875, 0.9375, 0.21
9500, 1.25, 0.9375, 0.21
9501, 1.3125, 0.9375, 0.21
9502, 1.375, 0.9375, 0.21
9503, 1.4375, 0.9375, 0.21
9504, 1.5, 0.9375, 0.21
9505, -0.5, 1, 0.21
9506, -0.4375, 1, 0.21
9507, -0.375, 1, 0.21
9508, -0.3125, 1, 0.21
9509, -0.25, 1, 0.21
9510, -0.1875, 1, 0.21
9511, -0.125, 1, 0.21
9512, -0.0625, 1, 0.21
9513, 0, 1, 0.21
9514, 0.0625, 1, 0.21
9515, 0.125, 1, 0.21
9516, 0.1875, 1, 0.21
9517, 0.25, 1, 0.21
9518, 0.3125, 1, 0.21
9519, 0.375, 1, 0.21
9520, 0.4375, 1, 0.21
9521, 0.5, 1, 0.21
9522, 0.5625, 1, 0.21
9523, 0.625, 1, 0.21
9524, 0.6875, 1, 0.21
9525, 0.75, 1, 0.21
9526, 0.8125, 1, 0.21
9527, 0.875, 1, 0.21
9528, 0.9375, 1, 0.21
9529, 1, 1, 0.21
9530, 1.0625, 1, 0.21
9531, 1.125, 1, 0.21
9532, 1.1875, 1, 0.21
9533, 1.25, 1, 0.21
9534, 1.3125, 1, 0.21
9535, 1.375, 1, 0.21
9536, 1.4375, 1, 0.21
9537, 1.5, 1, 0.21
9538, -0.5, 1.0625, 0.21
9539, -0.4375, 1.0625, 0.21
9540, -0.375, 1.0625, 0.21
9541, -0.3125, 1.0625, 0.21
9542, -0.25, 1.0625, 0.21
9543, -0.1875, 1.0625, 0.21
9544, -0.125, 1.0625, 0.21
9545, -0.0625, 1.0625, 0.21
9546, 0, 1.0625, 0.21
9547, 0.0625, 1.0625, 0.21
9548, 0.125, 1.0625, 0.21
9549, 0.1875, 1.0625, 0.21
9550, 0.25, 1.0625, 0.21
9551, 0.3125, 1.0625, 0.21
9552, 0.375, 1.0625, 0.21
9553, 0.4375, 1.0625, 0.21
9554, 0.5, 1.0625, 0.21
9555, 0.5625, 1.0625, 0.21
9556, 0.625, 1.0625, 0.21
9557, 0.6875, 1.0625, 0.21
9558, 0.75, 1.0625, 0.21
9559, 0.8125, 1.0625, 0.21
9560, 0.875, 1.0625, 0.21
9561, 0.9375, 1.0625, 0.21
9562, 1, 1.0625, 0.21
9563, 1.0625, 1.0625, 0.21
9564, 1.125, 1.0625, 0.21
9565, 1.1875, 1.0625, 0.21
9566, 1.25, 1.0625, 0.21
9567, 1.3125, 1.0625, 0.21
9568, 1.375, 1.0625, 0.21
9569, 1.4375, 1.0625, 0.21
9570, 1.5, 1.0625, 0.21
9571, -0.5, 1.125, 0.21
9572, -0.4375, 1.125, 0.21
9573, -0.375, 1.125, 0.21
9574, -0.3125, 1.125, 0.21
9575, -0.25, 1.125, 0.21
9576, -0.1875, 1.125, 0.21
9577, -0.125, 1.125, 0.21
9578, -0.0625, 1.125, 0.21
9579, 0, 1.125, 0.21
9580, 0.0625, 1.125, 0.21
9581, 0.125, 1.125, 0.21
9582, 0.1875, 1.125, 0.21
9583, 0.25, 1.125, 0.21
9584, 0.3125, 1.125, 0.21
9585, 0.375, 1.125, 0.21
9586, 0.4375, 1.125, 0.21
9587, 0.5, 1.125, 0.21
9588, 0.5625, 1.125, 0.21
9589, 0.625, 1.125, 0.21
9590, 0.6875, 1.125, 0.21
9591, 0.75, 1.125, 0.21
9592, 0.8125, 1.125, 0.21
9593, 0.875, 1.125, 0.21
9594, 0.9375, 1.125, 0.21
9595, 1, 1.125, 0.21
9596, 1.0625, 1.125, 0.21
9597, 1.125, 1.125, 0.21
9598, 1.1875, 1.125, 0.21
9599, 1.25, 1.125, 0.21
9600, 1.3125, 1.125, 0.21
9601, 1.375, 1.125, 0.21
9602, 1.4375, 1.125, 0.21
9603, 1.5, 1.125, 0.21
9604, -0.5, 1.1875, 0.21
9605, -0.4375, 1.1875, 0.21
9606, -0.375, 1.1875, 0.21
9607, -0.3125, 1.1875, 0.21
9608, -0.25, 1.1875, 0.21
9609, -0.1875, 1.1875, 0.21
9610, -0.125, 1.1875, 0.21
9611, -0.0625, 1.1875, 0.21
9612, 0, 1.1875, 0.21
9613, 0.0625, 1.1875, 0.21
9614, 0.125, 1.1875, 0.21
9615, 0.1875, 1.1875, 0.21
9616, 0.25, 1.1875, 0.21
9617, 0.3125, 1.1875, 0.21
9618, 0.375, 1.1875, 0.21
9619, 0.4375, 1.1875, 0.21
9620, 0.5, 1.1875, 0.21
9621, 0.5625, 1.1875, 0.21
9622, 0.625, 1.1875, 0.21
9623, 0.6875, 1.1875, 0.21
9624, 0.75, 1.1875, 0.21
9625, 0.8125, 1.1875, 0.21
9626, 0.875, 1.1875, 0.21
9627, 0.9375, 1.1875, 0.21
9628, 1, 1.1875, 0.21
9629, 1.0625, 1.1875, 0.21
9630, 1.125, 1.1875, 0.21
9631, 1.1875, 1.1875, 0.21
9632, 1.25, 1.1875, 0.21
9633, 1.3125, 1.1875, 0.21
9634, 1.375, 1.1875, 0.21
9635, 1.4375, 1.1875, 0.21
9636, 1.5, 1.1875, 0.21
9637, -0.5, 1.25, 0.21
9638, -0.4375, 1.25, 0.21
9639, -0.375, 1.25, 0.21
9640, -0.3125, 1.25, 0.21
9641, -0.25, 1.25, 0.21
9642, -0.1875, 1.25, 0.21
9643, -0.125, 1.25, 0.21
9644, -0.0625, 1.25, 0.21
9645, 0, 1.25, 0.21
9646, 0.0625, 1.25, 0.21
9647, 0.125, 1.25, 0.21
9648, 0.1875, 1.25, 0.21
9649, 0.25, 1.25, 0.21
9650, 0.3125, 1.25, 0.21
9651, 0.375, 1.25, 0.21
9652, 0.4375, 1.25, 0.21
9653, 0.5, 1.25, 0.21
9654, 0.5625, 1.25, 0.21
9655, 0.625, 1.25, 0.21
9656, 0.6875, 1.25, 0.21
9657, 0.75, 1.25, 0.21
9658, 0.8125, 1.25, 0.21
9659, 0.875, 1.25, 0.21
9660, 0.9375, 1.25, 0.21
9661, 1, 1.25, 0.21
9662, 1.0625, 1.25, 0.21
9663, 1.125, 1.25, 0.21
9664, 1.1875, 1.25, 0.21
9665, 1.25, 1.25, 0.21
9666, 1.3125, 1.25, 0.21
9667, 1.375, 1.25, 0.21
9668, 1.4375, 1.25, 0.21
9669, 1.5, 1.25, 0.21
9670, -0.5, 1.3125, 0.21
9671, -0.4375, 1.3125, 0.21
9672, -0.375, 1.3125, 0.21
9673, -0.3125, 1.3125, 0.21
9674, -0.25, 1.3125, 0.21
9675, -0.1875, 1.3125, 0.21
9676, -0.125, 1.3125, 0.21
9677, -0.0625, 1.3125, 0.21
9678, 0, 1.3125, 0.21
9679, 0.0625, 1.3125, 0.21
9680, 0.125, 1.3125, 0.21
9681, 0.1875, 1.3125, 0.21
9682, 0.25, 1.3125, 0.21
9683, 0.3125, 1.3125, 0.21
9684, 0.375, 1.3125, 0.21
9685, 0.4375, 1.3125, 0.21
9686, 0.5, 1.3125, 0.21
9687, 0.5625, 1.3125, 0.21
9688, 0.625, 1.3125, 0.21
9689, 0.6875, 1.3125, 0.21
9690, 0.75, 1.3125, 0.21
9691, 0.8125, 1.3125, 0.21
9692, 0.875, 1.3125, 0.21
9693, 0.9375, 1.3125, 0.21
9694, 1, 1.3125, 0.21
9695, 1.0625, 1.3125, 0.21
9696, 1.125, 1.3125, 0.21
9697, 1.1875, 1.3125, 0.21
9698, 1.25, 1.3125, 0.21
9699, 1.3125, 1.3125, 0.21
9700, 1.375, 1.3125, 0.21
9701, 1.4375, 1.3125, 0.21
9702, 1.5, 1.3125, 0.21
9703, -0.5, 1.375, 0.21
9704, -0.4375, 1.375, 0.21
9705, -0.375, 1.375, 0.21
9706, -0.3125, 1.375, 0.21
9707, -0.25, 1.375, 0.21
9708, -0.1875, 1.375, 0.21
9709, -0.125, 1.375, 0.21
9710, -0.0625, 1.375, 0.21
9711, 0, 1.375, 0.21
9712, 0.0625, 1.375, 0.21
9713, 0.125, 1.375, 0.21
9714, 0.1875, 1.375, 0.21
9715, 0.25, 1.375, 0.21
9716, 0.3125, 1.375, 0.21
9717, 0.375, 1.375, 0.21
9718, 0.4375, 1.375, 0.21
9719, 0.5, 1.375, 0.21
9720, 0.5625, 1.375, 0.21
9721, 0.625, 1.375, 0.21
9722, 0.6875, 1.375, 0.21
9723, 0.75, 1.375, 0.21
9724, 0.8125, 1.375, 0.21
9725, 0.875, 1.375, 0.21
9726, 0.9375, 1.375, 0.21
9727, 1, 1.375, 0.21
9728, 1.0625, 1.375, 0.21
9729, 1.125, 1.375, 0.21
9730, 1.1875, 1.375, 0.21
9731, 1.25, 1.375, 0.21
9732, 1.3125, 1.375, 0.21
9733, 1.375, 1.375, 0.21
9734, 1.4375, 1.375, 0.21
9735, 1.5, 1.375, 0.21
9736, -0.5, 1.4375, 0.21
9737, -0.4375, 1.4375, 0.21
9738, -0.375, 1.4375, 0.21
9739, -0.3125, 1.4375, 0.21
9740, -0.25, 1.4375, 0.21
9741, -0.1875, 1.4375, 0.21
9742, -0.125, 1.4375, 0.21
9743, -0.0625, 1.4375, 0.21
9744, 0, 1.4375, 0.21
9745, 0.0625, 1.4375, 0.21
9746, 0.125, 1.4375, 0.21
9747, 0.1875, 1.4375, 0.21
9748, 0.25, 1.4375, 0.21
9749, 0.3125, 1.4375, 0.21
9750, 0.375, 1.4375, 0.21
9751, 0.4375, 1.4375, 0.21
9752, 0.5, 1.4375, 0.21
9753, 0.5625, 1.4375, 0.21
9754, 0.625, 1.4375, 0.21
9755, 0.6875, 1.4375, 0.21
9756, 0.75, 1.4375, 0.21
9757, 0.8125, 1.4375, 0.21
9758, 0.875, 1.4375, 0.21
9759, 0.9375, 1.4375, 0.21
9760, 1, 1.4375, 0.21
9761, 1.0625, 1.4375, 0.21
9762, 1.125, 1.4375, 0.21
9763, 1.1875, 1.4375, 0.21
9764, 1.25, 1.4375, 0.21
9765, 1.3125, 1.4375, 0.21
9766, 1.375, 1.4375, 0.21
9767, 1.4375, 1.4375, 0.21
9768, 1.5, 1.4375, 0.21
9769, -0.5, 1.5, 0.21
9770, -0.4375, 1.5, 0.21
9771, -0.375, 1.5, 0.21
9772, -0.3125, 1.5, 0.21
9773, -0.25, 1.5, 0.21
9774, -0.1875, 1.5, 0.21
9775, -0.125, 1.5, 0.21
9776, -0.0625, 1.5, 0.21
9777, 0, 1.5, 0.21
9778, 0.0625, 1.5, 0.21
9779, 0.125, 1.5, 0.21
9780, 0.1875, 1.5, 0.21
9781, 0.25, 1.5, 0.21
9782, 0.3125, 1.5, 0.21
9783, 0.375, 1.5, 0.21
9784, 0.4375, 1.5, 0.21
9785, 0.5, 1.5, 0.21
9786, 0.5625, 1.5, 0.21
9787, 0.625, 1.5, 0.21
9788, 0.6875, 1.5, 0.21
9789, 0.75, 1.5, 0.21
9790, 0.8125, 1.5, 0.21
9791, 0.875, 1.5, 0.21
9792, 0.9375, 1.5, 0.21
9793, 1, 1.5, 0.21
9794, 1.0625, 1.5, 0.21
9795, 1.125, 1.5, 0.21
9796, 1.1875, 1.5, 0.21
9797, 1.25, 1.5, 0.21
9798, 1.3125, 1.5, 0.21
9799, 1.375, 1.5, 0.21
9800, 1.4375, 1.5, 0.21
9801, 1.5, 1.5, 0.21
*Element, Type=C3D8R
1, 2, 35, 34, 1, 1091, 1124, 1123, 1090
2, 3, 36, 35, 2, 1092, 1125, 1124, 1091
3, 4, 37, 36, 3, 1093, 1126, 1125, 1092
4, 5, 38, 37, 4, 1094, 1127, 1126, 1093
5, 6, 39, 38, 5, 1095, 1128, 1127, 1094
6, 7, 40, 39, 6, 1096, 1129, 1128, 1095
7, 8, 41, 40, 7, 1097, 1130, 1129, 1096
8, 9, 42, 41, 8, 1098, 1131, 1130, 1097
9, 10, 43, 42, 9, 1099, 1132, 1131, 1098
10, 11, 44, 43, 10, 1100, 1133, 1132, 1099
11, 12, 45, 44, 11, 1101, 1134, 1133, 1100
12, 13, 46, 45, 12, 1102, 1135, 1134, 1101
13, 14, 47, 46, 13, 1103, 1136, 1135, 1102
14, 15, 48, 47, 14, 1104, 1137, 1136, 1103
15, 16, 49, 48, 15, 1105, 1138, 1137, 1104
16, 17, 50, 49, 16, 1106, 1139, 1138, 1105
17, 18, 51, 50, 17, 1107, 1140, 1139, 1106
18, 19, 52, 51, 18, 1108, 1141, 1140, 1107
19, 20, 53, 52, 19, 1109, 1142, 1141, 1108
20, 21, 54, 53, 20, 1110, 1143, 1142, 1109
21, 22, 55, 54, 21, 1111, 1144, 1143, 1110
22, 23, 56, 55, 22, 1112, 1145, 1144, 1111
23, 24, 57, 56, 23, 1113, 1146, 1145, 1112
24, 25, 58, 57, 24, 1114, 1147, 1146, 1113
25, 26, 59, 58, 25, 1115, 1148, 1147, 1114
26, 27, 60, 59, 26, 1116, 1149, 1148, 1115
27, 28, 61, 60, 27, 1117, 1150, 1149, 1116
28, 29, 62, 61, 28, 1118, 1151, 1150, 1117
29, 30, 63, 62, 29, 1119, 1152, 1151, 1118
30, 31, 64, 63, 30, 1120, 1153, 1152, 1119
31, 32, 65, 64, 31, 1121, 1154, 1153, 1120
32, 33, 66, 65, 32, 1122, 1155, 1154, 1121
33, 35, 68, 67, 34, 1124, 1157, 1156, 1123
34, 36, 69, 68, 35, 1125, 1158, 1157, 1124
35, 37, 70, 69, 36, 1126, 1159, 1158, 1125
36, 38, 71, 70, 37, 1127, 1160, 1159, 1126
37, 39, 72, 71, 38, 1128, 1161, 1160, 1127
38, 40, 73, 72, 39, 1129, 1162, 1161, 1128
39, 41, 74, 73, 40, 1130, 1163, 1162, 1129
40, 42, 75, 74, 41, 1131, 1164, 1163, 1130
41, 43, 76, 75, 42, 1132, 1165, 1164, 1131
42, 44, 77, 76, 43, 1133, 1166, 1165, 1132
43, 45, 78, 77, 44, 1134, 1167, 1166, 1133
44, 46, 79, 78, 45, 1135, 1168, 1167, 1134
45, 47, 80, 79, 46, 1136, 1169, 1168, 1135
46, 48, 81, 80, 47, 1137, 1170, 1169, 1136
47, 49, 82, 81, 48, 1138, 1171, 1170, 1137
48, 50, 83, 82, 49, 1139, 1172, 1171, 1138
49, 51, 84, 83, 50, 1140, 1173, 1172, 1139
50, 52, 85, 84, 51, 1141, 1174, 1173, 1140
51, 53, 86, 85, 52, 1142, 1175, 1174, 1141
52, 54, 87, 86, 53, 1143, 1176, 1175, 1142
53, 55, 88, 87, 54, 1144, 1177, 1176, 1143
54, 56, 89, 88, 55, 1145, 1178, 1177, 1144
55, 57, 90, 89, 56, 1146, 1179, 1178, 1145
56, 58, 91, 90, 57, 1147, 1180, 1179, 1146
57, 59, 92, 91, 58, 1148, 1181, 1180, 1147
58, 60, 93, 92, 59, 1149, 1182, 1181, 1148
59, 61, 94, 93, 60, 1150, 1183, 1182, 1149
60, 62, 95, 94, 61, 1151, 1184, 1183, 1150
61, 63, 96, 95, 62, 1152, 1185, 1184, 1151
62, 64, 97, 96, 63, 1153, 1186, 1185, 1152
63, 65, 98, 97, 64, 1154, 1187, 1186, 1153
64, 66, 99, 98, 65, 1155, 1188, 1187, 1154
65, 68, 101, 100, 67, 1157, 1190, 1189, 1156
66, 69, 102, 101, 68, 1158, 1191, 1190, 1157
67, 70, 103, 102, 69, 1159, 1192, 1191, 1158
68, 71, 104, 103, 70, 1160, 1193, 1192, 1159
69, 72, 105, 104, 71, 1161, 1194, 1193, 1160
70, 73, 106, 105, 72, 1162, 1195, 1194, 1161
71, 74, 107, 106, 73, 1163, 1196, 1195, 1162
72, 75, 108, 107, 74, 1164, 1197, 1196, 1163
73, 76, 109, 108, 75, 1165, 1198, 1197, 1164
74, 77, 110, 109, 76, 1166, 1199, 1198, 1165
75, 78, 111, 110, 77, 1167, 1200, 1199, 1166
76, 79, 112, 111, 78, 1168, 1201, 1200, 1167
77, 80, 113, 112, 79, 1169, 1202, 1201, 1168
78, 81, 114, 113, 80, 1170, 1203, 1202, 1169
79, 82, 115, 114, 81, 1171, 1204, 1203, 1170
80, 83, 116, 115, 82, 1172, 1205, 1204, 1171
81, 84, 117, 116, 83, 1173, 1206, 1205, 1172
82, 85, 118, 117, 84, 1174, 1207, 1206, 1173
83, 86, 119, 118, 85, 1175, 1208, 1207, 1174
84, 87, 120, 119, 86, 1176, 1209, 1208, 1175
85, 88, 121, 120, 87, 1177, 1210, 1209, 1176
86, 89, 122, 121, 88, 1178, 1211, 1210, 1177
87, 90, 123, 122, 89, 1179, 1212, 1211, 1178
88, 91, 124, 123, 90, 1180, 1213, 1212, 1179
89, 92, 125, 124, 91, 1181, 1214, 1213, 1180
90, 93, 126, 125, 92, 1182, 1215, 1214, 1181
91, 94, 127, 126, 93, 1183, 1216, 1215, 1182
92, 95, 128, 127, 94, 1184, 1217, 1216, 1183
93, 96, 129, 128, 95, 1185, 1218, 1217, 1184
94, 97, 130, 129, 96, 1186, 1219, 1218, 1185
95, 98, 131, 130, 97, 1187, 1220, 1219, 1186
96, 99, 132, 131, 98, 1188, 1221, 1220, 1187
97, 101, 134, 133, 100, 1190, 1223, 1222, 1189
98, 102, 135, 134, 101, 1191, 1224, 1223, 1190
99, 103, 136, 135, 102, 1192, 1225, 1224, 1191
100, 104, 137, 136, 103, 1193, 1226, 1225, 1192
101, 105, 138, 137, 104, 1194, 1227, 1226, 1193
102, 106, 139, 138, 105, 1195, 1228, 1227, 1194
103, 107, 140, 139, 106, 1196, 1229, 1228, 1195
104, 108, 141, 140, 107, 1197, 1230, 1229, 1196
105, 109, 142, 141, 108, 1198, 1231, 1230, 1197
106, 110, 143, 142, 109, 1199, 1232, 1231, 1198
107, 111, 144, 143, 110, 1200, 1233, 1232, 1199
108, 112, 145, 144, 111, 1201, 1234, 1233, 1200
109, 113, 146, 145, 112, 1202, 1235, 1234, 1201
110, 114, 147, 146, 113, 1203, 1236, 1235, 1202
111, 115, 148, 147, 114, 1204, 1237, 1236, 1203
112, 116, 149, 148, 115, 1205, 1238, 1237, 1204
113, 117, 150, 149, 116, 1206, 1239, 1238, 1205
114, 118, 151, 150, 117, 1207, 1240, 1239, 1206
115, 119, 152, 151, 118, 1208, 1241, 1240, 1207
116, 120, 153, 152, 119, 1209, 1242, 1241, 1208
117, 121, 154, 153, 120, 1210, 1243, 1242, 1209
118, 122, 155, 154, 121, 1211, 1244, 1243, 1210
119, 123, 156, 155, 122, 1212, 1245, 1244, 1211
120, 124, 157, 156, 123, 1213, 1246, 1245, 1212
121, 125, 158, 157, 124, 1214, 1247, 1246, 1213
122, 126, 159, 158, 125, 1215, 1248, 1247, 1214
123, 127, 160, 159, 126, 1216, 1249, 1248, 1215
124, 128, 161, 160, 127, 1217, 1250, 1249, 1216
125, 129, 162, 161, 128, 1218, 1251, 1250, 1217
126, 130, 163, 162, 129, 1219, 1252, 1251, 1218
127, 131, 164, 163, 130, 1220, 1253, 1252, 1219
128, 132, 165, 164, 131, 1221, 1254, 1253, 1220
129, 134, 167, 166, 133, 1223, 1256, 1255, 1222
130, 135, 168, 167, 134, 1224, 1257, 1256, 1223
131, 136, 169, 168, 135, 1225, 1258, 1257, 1224
132, 137, 170, 169, 136, 1226, 1259, 1258, 1225
133, 138, 171, 170, 137, 1227, 1260, 1259, 1226
134, 139, 172, 171, 138, 1228, 1261, 1260, 1227
135, 140, 173, 172, 139, 1229, 1262, 1261, 1228
136, 141, 174, 173, 140, 1230, 1263, 1262, 1229
137, 142, 175, 174, 141, 1231, 1264, 1263, 1230
138, 143, 176, 175, 142, 1232, 1265, 1264, 1231
139, 144, 177, 176, 143, 1233, 1266, 1265, 1232
140, 145, 178, 177, 144, 1234, 1267, 1266, 1233
141, 146, 179, 178, 145, 1235, 1268, 1267, 1234
142, 147, 180, 179, 146, 1236, 1269, 1268, 1235
143, 148, 181, 180, 147, 1237, 1270, 1269, 1236
144, 149, 182, 181, 148, 1238, 1271, 1270, 1237
145, 150, 183, 182, 149, 1239, 1272, 1271, 1238
146, 151, 184, 183, 150, 1240, 1273, 1272, 1239
147, 152, 185, 184, 151, 1241, 1274, 1273, 1240
148, 153, 186, 185, 152, 1242, 1275, 1274, 1241
149, 154, 187, 186, 153, 1243, 1276, 1275, 1242
150, 155, 188, 187, 154, 1244, 1277, 1276, 1243
151, 156, 189, 188, 155, 1245, 1278, 1277, 1244
152, 157, 190, 189, 156, 1246, 1279, 1278, 1245
153, 158, 191, 190, 157, 1247, 1280, 1279, 1246
154, 159, 192, 191, 158, 1248, 1281, 1280, 1247
155, 160, 193, 192, 159, 1249, 1282, 1281, 1248
156, 161, 194, 193, 160, 1250, 1283, 1282, 1249
157, 162, 195, 194, 161, 1251, 1284, 1283, 1250
158, 163, 196, 195, 162, 1252, 1285, 1284, 1251
159, 164, 197, 196, 163, 1253, 1286, 1285, 1252
160, 165, 198, 197, 164, 1254, 1287, 1286, 1253
161, 167, 200, 199, 166, 1256, 1289, 1288, 1255
162, 168, 201, 200, 167, 1257, 1290, 1289, 1256
163, 169, 202, 201, 168, 1258, 1291, 1290, 1257
164, 170, 203, 202, 169, 1259, 1292, 1291, 1258
165, 171, 204, 203, 170, 1260, 1293, 1292, 1259
166, 172, 205, 204, 171, 1261, 1294, 1293, 1260
167, 173, 206, 205, 172, 1262, 1295, 1294, 1261
168, 174, 207, 206, 173, 1263, 1296, 1295, 1262
169, 175, 208, 207, 174, 1264, 1297, 1296, 1263
170, 176, 209, 208, 175, 1265, 1298, 1297, 1264
171, 177, 210, 209, 176, 1266, 1299, 1298, 1265
172, 178, 211, 210, 177, 1267, 1300, 1299, 1266
173, 179, 212, 211, 178, 1268, 1301, 1300, 1267
174, 180, 213, 212, 179, 1269, 1302, 1301, 1268
175, 181, 214, 213, 180, 1270, 1303, 1302, 1269
176, 182, 215, 214, 181, 1271, 1304, 1303, 1270
177, 183, 216, 215, 182, 1272, 1305, 1304, 1271
178, 184, 217, 216, 183, 1273, 1306, 1305, 1272
179, 185, 218, 217, 184, 1274, 1307, 1306, 1273
180, 186, 219, 218, 185, 1275, 1308, 1307, 1274
181, 187, 220, 219, 186, 1276, 1309, 1308, 1275
182, 188, 221, 220, 187, 1277, 1310, 1309, 1276
183, 189, 222, 221, 188, 1278, 1311, 1310, 1277
184, 190, 223, 222, 189, 1279, 1312, 1311, 1278
185, 191, 224, 223, 190, 1280, 1313, 1312, 1279
186, 192, 225, 224, 191, 1281, 1314, 1313, 1280
187, 193, 226, 225, 192, 1282, 1315, 1314, 1281
188, 194, 227, 226, 193, 1283, 1316, 1315, 1282
189, 195, 228, 227, 194, 1284, 1317, 1316, 1283
190, 196, 229, 228, 195, 1285, 1318, 1317, 1284
191, 197, 230, 229, 196, 1286, 1319, 1318, 1285
192, 198, 231, 230, 197, 1287, 1320, 1319, 1286
193, 200, 233, 232, 199, 1289, 1322, 1321, 1288
194, 201, 234, 233, 200, 1290, 1323, 1322, 1289
195, 202, 235, 234, 201, 1291, 1324, 1323, 1290
196, 203, 236, 235, 202, 1292, 1325, 1324, 1291
197, 204, 237, 236, 203, 1293, 1326, 1325, 1292
198, 205, 238, 237, 204, 1294, 1327, 1326, 1293
199, 206, 239, 238, 205, 1295, 1328, 1327, 1294
200, 207, 240, 239, 206, 1296, 1329, 1328, 1295
201, 208, 241, 240, 207, 1297, 1330, 1329, 1296
202, 209, 242, 241, 208, 1298, 1331, 1330, 1297
203, 210, 243, 242, 209, 1299, 1332, 1331, 1298
204, 211, 244, 243, 210, 1300, 1333, 1332, 1299
205, 212, 245, 244, 211, 1301, 1334, 1333, 1300
206, 213, 246, 245, 212, 1302, 1335, 1334, 1301
207, 214, 247, 246, 213, 1303, 1336, 1335, 1302
208, 215, 248, 247, 214, 1304, 1337, 1336, 1303
209, 216, 249, 248, 215, 1305, 1338, 1337, 1304
210, 217, 250, 249, 216, 1306, 1339, 1338, 1305
211, 218, 251, 250, 217, 1307, 1340, 1339, 1306
212, 219, 252, 251, 218, 1308, 1341, 1340, 1307
213, 220, 253, 252, 219, 1309, 1342, 1341, 1308
214, 221, 254, 253, 220, 1310, 1343, 1342, 1309
215, 222, 255, 254, 221, 1311, 1344, 1343, 1310
216, 223, 256, 255, 222, 1312, 1345, 1344, 1311
217, 224, 257, 256, 223, 1313, 1346, 1345, 1312
218, 225, 258, 257, 224, 1314, 1347, 1346, 1313
219, 226, 259, 258, 225, 1315, 1348, 1347, 1314
220, 227, 260, 259, 226, 1316, 1349, 1348, 1315
221, 228, 261, 260, 227, 1317, 1350, 1349, 1316
222, 229, 262, 261, 228, 1318, 1351, 1350, 1317
223, 230, 263, 262, 229, 1319, 1352, 1351, 1318
224, 231, 264, 263, 230, 1320, 1353, 1352, 1319
225, 233, 266, 265, 232, 1322, 1355, 1354, 1321
226, 234, 267, 266, 233, 1323, 1356, 1355, 1322
227, 235, 268, 267, 234, 1324, 1357, 1356, 1323
228, 236, 269, 268, 235, 1325, 1358, 1357, 1324
229, 237, 270, 269, 236, 1326, 1359, 1358, 1325
230, 238, 271, 270, 237, 1327, 1360, 1359, 1326
231, 239, 272, 271, 238, 1328, 1361, 1360, 1327
232, 240, 273, 272, 239, 1329, 1362, 1361, 1328
233, 241, 274, 273, 240, 1330, 1363, 1362, 1329
234, 242, 275, 274, 241, 1331, 1364, 1363, 1330
235, 243, 276, 275, 242, 1332, 1365, 1364, 1331
236, 244, 277, 276, 243, 1333, 1366, 1365, 1332
237, 245, 278, 277, 244, 1334, 1367, 1366, 1333
238, 246, 279, 278, 245, 1335, 1368, 1367, 1334
239, 247, 280, 279, 246, 1336, 1369, 1368, 1335
240, 248, 281, 280, 247, 1337, 1370, 1369, 1336
241, 249, 282, 281, 248, 1338, 1371, 1370, 1337
242, 250, 283, 282, 249, 1339, 1372, 1371, 1338
243, 251, 284, 283, 250, 1340, 1373, 1372, 1339
244, 252, 285, 284, 251, 1341, 1374, 1373, 1340
245, 253, 286, 285, 252, 1342, 1375, 1374, 1341
246, 254, 287, 286, 253, 1343, 1376, 1375, 1342
247, 255, 288, 287, 254, 1344, 1377, 1376, 1343
248, 256, 289, 288, 255, 1345, 1378, 1377, 1344
249, 257, 290, 289, 256, 1346, 1379, 1378, 1345
250, 258, 291, 290, 257, 1347, 1380, 1379, 1346
251, 259, 292, 291, 258, 1348, 1381, 1380, 1347
252, 260, 293, 292, 259, 1349, 1382, 1381, 1348
253, 261, 294, 293, 260, 1350, 1383, 1382, 1349
254, 262, 295, 294, 261, 1351, 1384, 1383, 1350
255, 263, 296, 295, 262, 1352, 1385, 1384, 1351
256, 264, 297, 296, 263, 1353, 1386, 1385, 1352
257, 266, 299, 298, 265, 1355, 1388, 1387, 1354
258, 267, 300, 299, 266, 1356, 1389, 1388, 1355
259, 268, 301, 300, 267, 1357, 1390, 1389, 1356
260, 269, 302, 301, 268, 1358, 1391, 1390, 1357
261, 270, 303, 302, 269, 1359, 1392, 1391, 1358
262, 271, 304, 303, 270, 1360, 1393, 1392, 1359
263, 272, 305, 304, 271, 1361, 1394, 1393, 1360
264, 273, 306, 305, 272, 1362, 1395, 1394, 1361
265, 274, 307, 306, 273, 1363, 1396, 1395, 1362
266, 275, 308, 307, 274, 1364, 1397, 1396, 1363
267, 276, 309, 308, 275, 1365, 1398, 1397, 1364
268, 277, 310, 309, 276, 1366, 1399, 1398, 1365
269, 278, 311, 310, 277, 1367, 1400, 1399, 1366
270, 279, 312, 311, 278, 1368, 1401, 1400, 1367
271, 280, 313, 312, 279, 1369, 1402, 1401, 1368
272, 281, 314, 313, 280, 1370, 1403, 1402, 1369
273, 282, 315, 314, 281, 1371, 1404, 1403, 1370
274, 283, 316, 315, 282, 1372, 1405, 1404, 1371
275, 284, 317, 316, 283, 1373, 1406, 1405, 1372
276, 285, 318, 317, 284, 1374, 1407, 1406, 1373
277, 286, 319, 318, 285, 1375, 1408, 1407, 1374
278, 287, 320, 319, 286, 1376, 1409, 1408, 1375
279, 288, 321, 320, 287, 1377, 1410, 1409, 1376
280, 289, 322, 321, 288, 1378, 1411, 1410, 1377
281, 290, 323, 322, 289, 1379, 1412, 1411, 1378
282, 291, 324, 323, 290, 1380, 1413, 1412, 1379
283, 292, 325, 324, 291, 1381, 1414, 1413, 1380
284, 293, 326, 325, 292, 1382, 1415, 1414, 1381
285, 294, 327, 326, 293, 1383, 1416, 1415, 1382
286, 295, 328, 327, 294, 1384, 1417, 1416, 1383
287, 296, 329, 328, 295, 1385, 1418, 1417, 1384
288, 297, 330, 329, 296, 1386, 1419, 1418, 1385
289, 299, 332, 331, 298, 1388, 1421, 1420, 1387
290, 300, 333, 332, 299, 1389, 1422, 1421, 1388
291, 301, 334, 333, 300, 1390, 1423, 1422, 1389
292, 302, 335, 334, 301, 1391, 1424, 1423, 1390
293, 303, 336, 335, 302, 1392, 1425, 1424, 1391
294, 304, 337, 336, 303, 1393, 1426, 1425, 1392
295, 305, 338, 337, 304, 1394, 1427, 1426, 1393
296, 306, 339, 338, 305, 1395, 1428, 1427, 1394
297, 307, 340, 339, 306, 1396, 1429, 1428, 1395
298, 308, 341, 340, 307, 1397, 1430, 1429, 1396
299, 309, 342, 341, 308, 1398, 1431, 1430, 1397
300, 310, 343, 342, 309, 1399, 1432, 1431, 1398
301, 311, 344, 343, 310, 1400, 1433, 1432, 1399
302, 312, 345, 344, 311, 1401, 1434, 1433, 1400
303, 313, 346, 345, 312, 1402, 1435, 1434, 1401
304, 314, 347, 346, 313, 1403, 1436, 1435, 1402
305, 315, 348, 347, 314, 1404, 1437, 1436, 1403
306, 316, 349, 348, 315, 1405, 1438, 1437, 1404
307, 317, 350, 349, 316, 1406, 1439, 1438, 1405
308, 318, 351, 350, 317, 1407, 1440, 1439, 1406
309, 319, 352, 351, 318, 1408, 1441, 1440, 1407
310, 320, 353, 352, 319, 1409, 1442, 1441, 1408
311, 321, 354, 353, 320, 1410, 1443, 1442, 1409
312, 322, 355, 354, 321, 1411, 1444, 1443, 1410
313, 323, 356, 355, 322, 1412, 1445, 1444, 1411
314, 324, 357, 356, 323, 1413, 1446, 1445, 1412
315, 325, 358, 357, 324, 1414, 1447, 1446, 1413
316, 326, 359, 358, 325, 1415, 1448, 1447, 1414
317, 327, 360, 359, 326, 1416, 1449, 1448, 1415
318, 328, 361, 360, 327, 1417, 1450, 1449, 1416
319, 329, 362, 361, 328, 1418, 1451, 1450, 1417
320, 330, 363, 362, 329, 1419, 1452, 1451, 1418
321, 332, 365, 364, 331, 1421, 1454, 1453, 1420
322, 333, 366, 365, 332, 1422, 1455, 1454, 1421
323, 334, 367, 366, 333, 1423, 1456, 1455, 1422
324, 335, 368, 367, 334, 1424, 1457, 1456, 1423
325, 336, 369, 368, 335, 1425, 1458, 1457, 1424
326, 337, 370, 369, 336, 1426, 1459, 1458, 1425
327, 338, 371, 370, 337, 1427, 1460, 1459, 1426
328, 339, 372, 371, 338, 1428, 1461, 1460, 1427
329, 340, 373, 372, 339, 1429, 1462, 1461, 1428
330, 341, 374, 373, 340, 1430, 1463, 1462, 1429
331, 342, 375, 374, 341, 1431, 1464, 1463, 1430
332, 343, 376, 375, 342, 1432, 1465, 1464, 1431
333, 344, 377, 376, 343, 1433, 1466, 1465, 1432
334, 345, 378, 377, 344, 1434, 1467, 1466, 1433
335, 346, 379, 378, 345, 1435, 1468, 1467, 1434
336, 347, 380, 379, 346, 1436, 1469, 1468, 1435
337, 348, 381, 380, 347, 1437, 1470, 1469, 1436
338, 349, 382, 381, 348, 1438, 1471, 1470, 1437
339, 350, 383, 382, 349, 1439, 1472, 1471, 1438
340, 351, 384, 383, 350, 1440, 1473, 1472, 1439
341, 352, 385, 384, 351, 1441, 1474, 1473, 1440
342, 353, 386, 385, 352, 1442, 1475, 1474, 1441
343, 354, 387, 386, 353, 1443, 1476, 1475, 1442
344, 355, 388, 387, 354, 1444, 1477, 1476, 1443
345, 356, 389, 388, 355, 1445, 1478, 1477, 1444
346, 357, 390, 389, 356, 1446, 1479, 1478, 1445
347, 358, 391, 390, 357, 1447, 1480, 1479, 1446
348, 359, 392, 391, 358, 1448, 1481, 1480, 1447
349, 360, 393, 392, 359, 1449, 1482, 1481, 1448
350, 361, 394, 393, 360, 1450, 1483, 1482, 1449
351, 362, 395, 394, 361, 1451, 1484, 1483, 1450
352, 363, 396, 395, 362, 1452, 1485, 1484, 1451
353, 365, 398, 397, 364, 1454, 1487, 1486, 1453
354, 366, 399, 398, 365, 1455, 1488, 1487, 1454
355, 367, 400, 399, 366, 1456, 1489, 1488, 1455
356, 368, 401, 400, 367, 1457, 1490, 1489, 1456
357, 369, 402, 401, 368, 1458, 1491, 1490, 1457
358, 370, 403, 402, 369, 1459, 1492, 1491, 1458
359, 371, 404, 403, 370, 1460, 1493, 1492, 1459
360, 372, 405, 404, 371, 1461, 1494, 1493, 1460
361, 373, 406, 405, 372, 1462, 1495, 1494, 1461
362, 374, 407, 406, 373, 1463, 1496, 1495, 1462
363, 375, 408, 407, 374, 1464, 1497, 1496, 1463
364, 376, 409, 408, 375, 1465, 1498, 1497, 1464
365, 377, 410, 409, 376, 1466, 1499, 1498, 1465
366, 378, 411, 410, 377, 1467, 1500, 1499, 1466
367, 379, 412, 411, 378, 1468, 1501, 1500, 1467
368, 380, 413, 412, 379, 1469, 1502, 1501, 1468
369, 381, 414, 413, 380, 1470, 1503, 1502, 1469
370, 382, 415, 414, 381, 1471, 1504, 1503, 1470
371, 383, 416, 415, 382, 1472, 1505, 1504, 1471
372, 384, 417, 416, 383, 1473, 1506, 1505, 1472
373, 385, 418, 417, 384, 1474, 1507, 1506, 1473
374, 386, 419, 418, 385, 1475, 1508, 1507, 1474
375, 387, 420, 419, 386, 1476, 1509, 1508, 1475
376, 388, 421, 420, 387, 1477, 1510, 1509, 1476
377, 389, 422, 421, 388, 1478, 1511, 1510, 1477
378, 390, 423, 422, 389, 1479, 1512, 1511, 1478
379, 391, 424, 423, 390, 1480, 1513, 1512, 1479
380, 392, 425, 424, 391, 1481, 1514, 1513, 1480
381, 393, 426, 425, 392, 1482, 1515, 1514, 1481
382, 394, 427, 426, 393, 1483, 1516, 1515, 1482
383, 395, 428, 427, 394, 1484, 1517, 1516, 1483
384, 396, 429, 428, 395, 1485, 1518, 1517, 1484
385, 398, 431, 430, 397, 1487, 1520, 1519, 1486
386, 399, 432, 431, 398, 1488, 1521, 1520, 1487
387, 400, 433, 432, 399, 1489, 1522, 1521, 1488
388, 401, 434, 433, 400, 1490, 1523, 1522, 1489
389, 402, 435, 434, 401, 1491, 1524, 1523, 1490
390, 403, 436, 435, 402, 1492, 1525, 1524, 1491
391, 404, 437, 436, 403, 1493, 1526, 1525, 1492
392, 405, 438, 437, 404, 1494, 1527, 1526, 1493
393, 406, 439, 438, 405, 1495, 1528, 1527, 1494
394, 407, 440, 439, 406, 1496, 1529, 1528, 1495
395, 408, 441, 440, 407, 1497, 1530, 1529, 1496
396, 409, 442, 441, 408, 1498, 1531, 1530, 1497
397, 410, 443, 442, 409, 1499, 1532, 1531, 1498
398, 411, 444, 443, 410, 1500, 1533, 1532, 1499
399, 412, 445, 444, 411, 1501, 1534, 1533, 1500
400, 413, 446, 445, 412, 1502, 1535, 1534, 1501
401, 414, 447, 446, 413, 1503, 1536, 1535, 1502
402, 415, 448, 447, 414, 1504, 1537, 1536, 1503
403, 416, 449, 448, 415, 1505, 1538, 1537, 1504
404, 417, 450, 449, 416, 1506, 1539, 1538, 1505
405, 418, 451, 450, 417, 1507, 1540, 1539, 1506
406, 419, 452, 451, 418, 1508, 1541, 1540, 1507
407, 420, 453, 452, 419, 1509, 1542, 1541, 1508
408, 421, 454, 453, 420, 1510, 1543, 1542, 1509
409, 422, 455, 454, 421, 1511, 1544, 1543, 1510
410, 423, 456, 455, 422, 1512, 1545, 1544, 1511
411, 424, 457, 456, 423, 1513, 1546, 1545, 1512
412, 425, 458, 457, 424, 1514, 1547, 1546, 1513
413, 426, 459, 458, 425, 1515, 1548, 1547, 1514
414, 427, 460, 459, 426, 1516, 1549, 1548, 1515
415, 428, 461, 460, 427, 1517, 1550, 1549, 1516
416, 429, 462, 461, 428, 1518, 1551, 1550, 1517
417, 431, 464, 463, 430, 1520, 1553, 1552, 1519
418, 432, 465, 464, 431, 1521, 1554, 1553, 1520
419, 433, 466, 465, 432, 1522, 1555, 1554, 1521
420, 434, 467, 466, 433, 1523, 1556, 1555, 1522
421, 435, 468, 467, 434, 1524, 1557, 1556, 1523
422, 436, 469, 468, 435, 1525, 1558, 1557, 1524
423, 437, 470, 469, 436, 1526, 1559, 1558, 1525
424, 438, 471, 470, 437, 1527, 1560, 1559, 1526
425, 439, 472, 471, 438, 1528, 1561, 1560, 1527
426, 440, 473, 472, 439, 1529, 1562, 1561, 1528
427, 441, 474, 473, 440, 1530, 1563, 1562, 1529
428, 442, 475, 474, 441, 1531, 1564, 1563, 1530
429, 443, 476, 475, 442, 1532, 1565, 1564, 1531
430, 444, 477, 476, 443, 1533, 1566, 1565, 1532
431, 445, 478, 477, 444, 1534, 1567, 1566, 1533
432, 446, 479, 478, 445, 1535, 1568, 1567, 1534
433, 447, 480, 479, 446, 1536, 1569, 1568, 1535
434, 448, 481, 480, 447, 1537, 1570, 1569, 1536
435, 449, 482, 481, 448, 1538, 1571, 1570, 1537
436, 450, 483, 482, 449, 1539, 1572, 1571, 1538
437, 451, 484, 483, 450, 1540, 1573, 1572, 1539
438, 452, 485, 484, 451, 1541, 1574, 1573, 1540
439, 453, 486, 485, 452, 1542, 1575, 1574, 1541
440, 454, 487, 486, 453, 1543, 1576, 1575, 1542
441, 455, 488, 487, 454, 1544, 1577, 1576, 1543
442, 456, 489, 488, 455, 1545, 1578, 1577, 1544
443, 457, 490, 489, 456, 1546, 1579, 1578, 1545
444, 458, 491, 490, 457, 1547, 1580, 1579, 1546
445, 459, 492, 491, 458, 1548, 1581, 1580, 1547
446, 460, 493, 492, 459, 1549, 1582, 1581, 1548
447, 461, 494, 493, 460, 1550, 1583, 1582, 1549
448, 462, 495, 494, 461, 1551, 1584, 1583, 1550
449, 464, 497, 496, 463, 1553, 1586, 1585, 1552
450, 465, 498, 497, 464, 1554, 1587, 1586, 1553
451, 466, 499, 498, 465, 1555, 1588, 1587, 1554
452, 467, 500, 499, 466, 1556, 1589, 1588, 1555
453, 468, 501, 500, 467, 1557, 1590, 1589, 1556
454, 469, 502, 501, 468, 1558, 1591, 1590, 1557
455, 470, 503, 502, 469, 1559, 1592, 1591, 1558
456, 471, 504, 503, 470, 1560, 1593, 1592, 1559
457, 472, 505, 504, 471, 1561, 1594, 1593, 1560
458, 473, 506, 505, 472, 1562, 1595, 1594, 1561
459, 474, 507, 506, 473, 1563, 1596, 1595, 1562
460, 475, 508, 507, 474, 1564, 1597, 1596, 1563
461, 476, 509, 508, 475, 1565, 1598, 1597, 1564
462, 477, 510, 509, 476, 1566, 1599, 1598, 1565
463, 478, 511, 510, 477, 1567, 1600, 1599, 1566
464, 479, 512, 511, 478, 1568, 1601, 1600, 1567
465, 480, 513, 512, 479, 1569, 1602, 1601, 1568
466, 481, 514, 513, 480, 1570, 1603, 1602, 1569
467, 482, 515, 514, 481, 1571, 1604, 1603, 1570
468, 483, 516, 515, 482, 1572, 1605, 1604, 1571
469, 484, 517, 516, 483, 1573, 1606, 1605, 1572
470, 485, 518, 517, 484, 1574, 1607, 1606, 1573
471, 486, 519, 518, 485, 1575, 1608, 1607, 1574
472, 487, 520, 519, 486, 1576, 1609, 1608, 1575
473, 488, 521, 520, 487, 1577, 1610, 1609, 1576
474, 489, 522, 521, 488, 1578, 1611, 1610, 1577
475, 490, 523, 522, 489, 1579, 1612, 1611, 1578
476, 491, 524, 523, 490, 1580, 1613, 1612, 1579
477, 492, 525, 524, 491, 1581, 1614, 1613, 1580
478, 493, 526, 525, 492, 1582, 1615, 1614, 1581
479, 494, 527, 526, 493, 1583, 1616, 1615, 1582
480, 495, 528, 527, 494, 1584, 1617, 1616, 1583
481, 497, 530, 529, 496, 1586, 1619, 1618, 1585
482, 498, 531, 530, 497, 1587, 1620, 1619, 1586
483, 499, 532, 531, 498, 1588, 1621, 1620, 1587
484, 500, 533, 532, 499, 1589, 1622, 1621, 1588
485, 501, 534, 533, 500, 1590, 1623, 1622, 1589
486, 502, 535, 534, 501, 1591, 1624, 1623, 1590
487, 503, 536, 535, 502, 1592, 1625, 1624, 1591
488, 504, 537, 536, 503, 1593, 1626, 1625, 1592
489, 505, 538, 537, 504, 1594, 1627, 1626, 1593
490, 506, 539, 538, 505, 1595, 1628, 1627, 1594
491, 507, 540, 539, 506, 1596, 1629, 1628, 1595
492, 508, 541, 540, 507, 1597, 1630, 1629, 1596
493, 509, 542, 541, 508, 1598, 1631, 1630, 1597
494, 510, 543, 542, 509, 1599, 1632, 1631, 1598
495, 511, 544, 543, 510, 1600, 1633, 1632, 1599
496, 512, 545, 544, 511, 1601, 1634, 1633, 1600
497, 513, 546, 545, 512, 1602, 1635, 1634, 1601
498, 514, 547, 546, 513, 1603, 1636, 1635, 1602
499, 515, 548, 547, 514, 1604, 1637, 1636, 1603
500, 516, 549, 548, 515, 1605, 1638, 1637, 1604
501, 517, 550, 549, 516, 1606, 1639, 1638, 1605
502, 518, 551, 550, 517, 1607, 1640, 1639, 1606
503, 519, 552, 551, 518, 1608, 1641, 1640, 1607
504, 520, 553, 552, 519, 1609, 1642, 1641, 1608
505, 521, 554, 553, 520, 1610, 1643, 1642, 1609
506, 522, 555, 554, 521, 1611, 1644, 1643, 1610
507, 523, 556, 555, 522, 1612, 1645, 1644, 1611
508, 524, 557, 556, 523, 1613, 1646, 1645, 1612
509, 525, 558, 557, 524, 1614, 1647, 1646, 1613
510, 526, 559, 558, 525, 1615, 1648, 1647, 1614
511, 527, 560, 559, 526, 1616, 1649, 1648, 1615
512, 528, 561, 560, 527, 1617, 1650, 1649, 1616
513, 530, 563, 562, 529, 1619, 1652, 1651, 1618
514, 531, 564, 563, 530, 1620, 1653, 1652, 1619
515, 532, 565, 564, 531, 1621, 1654, 1653, 1620
516, 533, 566, 565, 532, 1622, 1655, 1654, 1621
517, 534, 567, 566, 533, 1623, 1656, 1655, 1622
518, 535, 568, 567, 534, 1624, 1657, 1656, 1623
519, 536, 569, 568, 535, 1625, 1658, 1657, 1624
520, 537, 570, 569, 536, 1626, 1659, 1658, 1625
521, 538, 571, 570, 537, 1627, 1660, 1659, 1626
522, 539, 572, 571, 538, 1628, 1661, 1660, 1627
523, 540, 573, 572, 539, 1629, 1662, 1661, 1628
524, 541, 574, 573, 540, 1630, 1663, 1662, 1629
525, 542, 575, 574, 541, 1631, 1664, 1663, 1630
526, 543, 576, 575, 542, 1632, 1665, 1664, 1631
527, 544, 577, 576, 543, 1633, 1666, 1665, 1632
528, 545, 578, 577, 544, 1634, 1667, 1666, 1633
529, 546, 579, 578, 545, 1635, 1668, 1667, 1634
530, 547, 580, 579, 546, 1636, 1669, 1668, 1635
531, 548, 581, 580, 547, 1637, 1670, 1669, 1636
532, 549, 582, 581, 548, 1638, 1671, 1670, 1637
533, 550, 583, 582, 549, 1639, 1672, 1671, 1638
534, 551, 584, 583, 550, 1640, 1673, 1672, 1639
535, 552, 585, 584, 551, 1641, 1674, 1673, 1640
536, 553, 586, 585, 552, 1642, 1675, 1674, 1641
537, 554, 587, 586, 553, 1643, 1676, 1675, 1642
538, 555, 588, 587, 554, 1644, 1677, 1676, 1643
539, 556, 589, 588, 555, 1645, 1678, 1677, 1644
540, 557, 590, 589, 556, 1646, 1679, 1678, 1645
541, 558, 591, 590, 557, 1647, 1680, 1679, 1646
542, 559, 592, 591, 558, 1648, 1681, 1680, 1647
543, 560, 593, 592, 559, 1649, 1682, 1681, 1648
544, 561, 594, 593, 560, 1650, 1683, 1682, 1649
545, 563, 596, 595, 562, 1652, 1685, 1684, 1651
546, 564, 597, 596, 563, 1653, 1686, 1685, 1652
547, 565, 598, 597, 564, 1654, 1687, 1686, 1653
548, 566, 599, 598, 565, 1655, 1688, 1687, 1654
549, 567, 600, 599, 566, 1656, 1689, 1688, 1655
550, 568, 601, 600, 567, 1657, 1690, 1689, 1656
551, 569, 602, 601, 568, 1658, 1691, 1690, 1657
552, 570, 603, 602, 569, 1659, 1692, 1691, 1658
553, 571, 604, 603, 570, 1660, 1693, 1692, 1659
554, 572, 605, 604, 571, 1661, 1694, 1693, 1660
555, 573, 606, 605, 572, 1662, 1695, 1694, 1661
556, 574, 607, 606, 573, 1663, 1696, 1695, 1662
557, 575, 608, 607, 574, 1664, 1697, 1696, 1663
558, 576, 609, 608, 575, 1665, 1698, 1697, 1664
559, 577, 610, 609, 576, 1666, 1699, 1698, 1665
560, 578, 611, 610, 577, 1667, 1700, 1699, 1666
561, 579, 612, 611, 578, 1668, 1701, 1700, 1667
562, 580, 613, 612, 579, 1669, 1702, 1701, 1668
563, 581, 614, 613, 580, 1670, 1703, 1702, 1669
564, 582, 615, 614, 581, 1671, 1704, 1703, 1670
565, 583, 616, 615, 582, 1672, 1705, 1704, 1671
566, 584, 617, 616, 583, 1673, 1706, 1705, 1672
567, 585, 618, 617, 584, 1674, 1707, 1706, 1673
568, 586, 619, 618, 585, 1675, 1708, 1707, 1674
569, 587, 620, 619, 586, 1676, 1709, 1708, 1675
570, 588, 621, 620, 587, 1677, 1710, 1709, 1676
571, 589, 622, 621, 588, 1678, 1711, 1710, 1677
572, 590, 623, 622, 589, 1679, 1712, 1711, 1678
573, 591, 624, 623, 590, 1680, 1713, 1712, 1679
574, 592, 625, 624, 591, 1681, 1714, 1713, 1680
575, 593, 626, 625, 592, 1682, 1715, 1714, 1681
576, 594, 627, 626, 593, 1683, 1716, 1715, 1682
577, 596, 629, 628, 595, 1685, 1718, 1717, 1684
578, 597, 630, 629, 596, 1686, 1719, 1718, 1685
579, 598, 631, 630, 597, 1687, 1720, 1719, 1686
580, 599, 632, 631, 598, 1688, 1721, 1720, 1687
581, 600, 633, 632, 599, 1689, 1722, 1721, 1688
582, 601, 634, 633, 600, 1690, 1723, 1722, 1689
583, 602, 635, 634, 601, 1691, 1724, 1723, 1690
584, 603, 636, 635, 602, 1692, 1725, 1724, 1691
585, 604, 637, 636, 603, 1693, 1726, 1725, 1692
586, 605, 638, 637, 604, 1694, 1727, 1726, 1693
587, 606, 639, 638, 605, 1695, 1728, 1727, 1694
588, 607, 640, 639, 606, 1696, 1729, 1728, 1695
589, 608, 641, 640, 607, 1697, 1730, 1729, 1696
590, 609, 642, 641, 608, 1698, 1731, 1730, 1697
591, 610, 643, 642, 609, 1699, 1732, 1731, 1698
592, 611, 644, 643, 610, 1700, 1733, 1732, 1699
593, 612, 645, 644, 611, 1701, 1734, 1733, 1700
594, 613, 646, 645, 612, 1702, 1735, 1734, 1701
595, 614, 647, 646, 613, 1703, 1736, 1735, 1702
596, 615, 648, 647, 614, 1704, 1737, 1736, 1703
597, 616, 649, 648, 615, 1705, 1738, 1737, 1704
598, 617, 650, 649, 616, 1706, 1739, 1738, 1705
599, 618, 651, 650, 617, 1707, 1740, 1739, 1706
600, 619, 652, 651, 618, 1708, 1741, 1740, 1707
601, 620, 653, 652, 619, 1709, 1742, 1741, 1708
602, 621, 654, 653, 620, 1710, 1743, 1742, 1709
603, 622, 655, 654, 621, 1711, 1744, 1743, 1710
604, 623, 656, 655, 622, 1712, 1745, 1744, 1711
605, 624, 657, 656, 623, 1713, 1746, 1745, 1712
606, 625, 658, 657, 624, 1714, 1747, 1746, 1713
607, 626, 659, 658, 625, 1715, 1748, 1747, 1714
608, 627, 660, 659, 626, 1716, 1749, 1748, 1715
609, 629, 662, 661, 628, 1718, 1751, 1750, 1717
610, 630, 663, 662, 629, 1719, 1752, 1751, 1718
611, 631, 664, 663, 630, 1720, 1753, 1752, 1719
612, 632, 665, 664, 631, 1721, 1754, 1753, 1720
613, 633, 666, 665, 632, 1722, 1755, 1754, 1721
614, 634, 667, 666, 633, 1723, 1756, 1755, 1722
615, 635, 668, 667, 634, 1724, 1757, 1756, 1723
616, 636, 669, 668, 635, 1725, 1758, 1757, 1724
617, 637, 670, 669, 636, 1726, 1759, 1758, 1725
618, 638, 671, 670, 637, 1727, 1760, 1759, 1726
619, 639, 672, 671, 638, 1728, 1761, 1760, 1727
620, 640, 673, 672, 639, 1729, 1762, 1761, 1728
621, 641, 674, 673, 640, 1730, 1763, 1762, 1729
622, 642, 675, 674, 641, 1731, 1764, 1763, 1730
623, 643, 676, 675, 642, 1732, 1765, 1764, 1731
624, 644, 677, 676, 643, 1733, 1766, 1765, 1732
625, 645, 678, 677, 644, 1734, 1767, 1766, 1733
626, 646, 679, 678, 645, 1735, 1768, 1767, 1734
627, 647, 680, 679, 646, 1736, 1769, 1768, 1735
628, 648, 681, 680, 647, 1737, 1770, 1769, 1736
629, 649, 682, 681, 648, 1738, 1771, 1770, 1737
630, 650, 683, 682, 649, 1739, 1772, 1771, 1738
631, 651, 684, 683, 650, 1740, 1773, 1772, 1739
632, 652, 685, 684, 651, 1741, 1774, 1773, 1740
633, 653, 686, 685, 652, 1742, 1775, 1774, 1741
634, 654, 687, 686, 653, 1743, 1776, 1775, 1742
635, 655, 688, 687, 654, 1744, 1777, 1776, 1743
636, 656, 689, 688, 655, 1745, 1778, 1777, 1744
637, 657, 690, 689, 656, 1746, 1779, 1778, 1745
638, 658, 691, 690, 657, 1747, 1780, 1779, 1746
639, 659, 692, 691, 658, 1748, 1781, 1780, 1747
640, 660, 693, 692, 659, 1749, 1782, 1781, 1748
641, 662, 695, 694, 661, 1751, 1784, 1783, 1750
642, 663, 696, 695, 662, 1752, 1785, 1784, 1751
643, 664, 697, 696, 663, 1753, 1786, 1785, 1752
644, 665, 698, 697, 664, 1754, 1787, 1786, 1753
645, 666, 699, 698, 665, 1755, 1788, 1787, 1754
646, 667, 700, 699, 666, 1756, 1789, 1788, 1755
647, 668, 701, 700, 667, 1757, 1790, 1789, 1756
648, 669, 702, 701, 668, 1758, 1791, 1790, 1757
649, 670, 703, 702, 669, 1759, 1792, 1791, 1758
650, 671, 704, 703, 670, 1760, 1793, 1792, 1759
651, 672, 705, 704, 671, 1761, 1794, 1793, 1760
652, 673, 706, 705, 672, 1762, 1795, 1794, 1761
653, 674, 707, 706, 673, 1763, 1796, 1795, 1762
654, 675, 708, 707, 674, 1764, 1797, 1796, 1763
655, 676, 709, 708, 675, 1765, 1798, 1797, 1764
656, 677, 710, 709, 676, 1766, 1799, 1798, 1765
657, 678, 711, 710, 677, 1767, 1800, 1799, 1766
658, 679, 712, 711, 678, 1768, 1801, 1800, 1767
659, 680, 713, 712, 679, 1769, 1802, 1801, 1768
660, 681, 714, 713, 680, 1770, 1803, 1802, 1769
661, 682, 715, 714, 681, 1771, 1804, 1803, 1770
662, 683, 716, 715, 682, 1772, 1805, 1804, 1771
663, 684, 717, 716, 683, 1773, 1806, 1805, 1772
664, 685, 718, 717, 684, 1774, 1807, 1806, 1773
665, 686, 719, 718, 685, 1775, 1808, 1807, 1774
666, 687, 720, 719, 686, 1776, 1809, 1808, 1775
667, 688, 721, 720, 687, 1777, 1810, 1809, 1776
668, 689, 722, 721, 688, 1778, 1811, 1810, 1777
669, 690, 723, 722, 689, 1779, 1812, 1811, 1778
670, 691, 724, 723, 690, 1780, 1813, 1812, 1779
671, 692, 725, 724, 691, 1781, 1814, 1813, 1780
672, 693, 726, 725, 692, 1782, 1815, 1814, 1781
673, 695, 728, 727, 694, 1784, 1817, 1816, 1783
674, 696, 729, 728, 695, 1785, 1818, 1817, 1784
675, 697, 730, 729, 696, 1786, 1819, 1818, 1785
676, 698, 731, 730, 697, 1787, 1820, 1819, 1786
677, 699, 732, 731, 698, 1788, 1821, 1820, 1787
678, 700, 733, 732, 699, 1789, 1822, 1821, 1788
679, 701, 734, 733, 700, 1790, 1823, 1822, 1789
680, 702, 735, 734, 701, 1791, 1824, 1823, 1790
681, 703, 736, 735, 702, 1792, 1825, 1824, 1791
682, 704, 737, 736, 703, 1793, 1826, 1825, 1792
683, 705, 738, 737, 704, 1794, 1827, 1826, 1793
684, 706, 739, 738, 705, 1795, 1828, 1827, 1794
685, 707, 740, 739, 706, 1796, 1829, 1828, 1795
686, 708, 741, 740, 707, 1797, 1830, 1829, 1796
687, 709, 742, 741, 708, 1798, 1831, 1830, 1797
688, 710, 743, 742, 709, 1799, 1832, 1831, 1798
689, 711, 744, 743, 710, 1800, 1833, 1832, 1799
690, 712, 745, 744, 711, 1801, 1834, 1833, 1800
691, 713, 746, 745, 712, 1802, 1835, 1834, 1801
692, 714, 747, 746, 713, 1803, 1836, 1835, 1802
693, 715, 748, 747, 714, 1804, 1837, 1836, 1803
694, 716, 749, 748, 715, 1805, 1838, 1837, 1804
695, 717, 750, 749, 716, 1806, 1839, 1838, 1805
696, 718, 751, 750, 717, 1807, 1840, 1839, 1806
697, 719, 752, 751, 718, 1808, 1841, 1840, 1807
698, 720, 753, 752, 719, 1809, 1842, 1841, 1808
699, 721, 754, 753, 720, 1810, 1843, 1842, 1809
700, 722, 755, 754, 721, 1811, 1844, 1843, 1810
701, 723, 756, 755, 722, 1812, 1845, 1844, 1811
702, 724, 757, 756, 723, 1813, 1846, 1845, 1812
703, 725, 758, 757, 724, 1814, 1847, 1846, 1813
704, 726, 759, 758, 725, 1815, 1848, 1847, 1814
705, 728, 761, 760, 727, 1817, 1850, 1849, 1816
706, 729, 762, 761, 728, 1818, 1851, 1850, 1817
707, 730, 763, 762, 729, 1819, 1852, 1851, 1818
708, 731, 764, 763, 730, 1820, 1853, 1852, 1819
709, 732, 765, 764, 731, 1821, 1854, 1853, 1820
710, 733, 766, 765, 732, 1822, 1855, 1854, 1821
711, 734, 767, 766, 733, 1823, 1856, 1855, 1822
712, 735, 768, 767, 734, 1824, 1857, 1856, 1823
713, 736, 769, 768, 735, 1825, 1858, 1857, 1824
714, 737, 770, 769, 736, 1826, 1859, 1858, 1825
715, 738, 771, 770, 737, 1827, 1860, 1859, 1826
716, 739, 772, 771, 738, 1828, 1861, 1860, 1827
717, 740, 773, 772, 739, 1829, 1862, 1861, 1828
718, 741, 774, 773, 740, 1830, 1863, 1862, 1829
719, 742, 775, 774, 741, 1831, 1864, 1863, 1830
720, 743, 776, 775, 742, 1832, 1865, 1864, 1831
721, 744, 777, 776, 743, 1833, 1866, 1865, 1832
722, 745, 778, 777, 744, 1834, 1867, 1866, 1833
723, 746, 779, 778, 745, 1835, 1868, 1867, 1834
724, 747, 780, 779, 746, 1836, 1869, 1868, 1835
725, 748, 781, 780, 747, 1837, 1870, 1869, 1836
726, 749, 782, 781, 748, 1838, 1871, 1870, 1837
727, 750, 783, 782, 749, 1839, 1872, 1871, 1838
728, 751, 784, 783, 750, 1840, 1873, 1872, 1839
729, 752, 785, 784, 751, 1841, 1874, 1873, 1840
730, 753, 786, 785, 752, 1842, 1875, 1874, 1841
731, 754, 787, 786, 753, 1843, 1876, 1875, 1842
732, 755, 788, 787, 754, 1844, 1877, 1876, 1843
733, 756, 789, 788, 755, 1845, 1878, 1877, 1844
734, 757, 790, 789, 756, 1846, 1879, 1878, 1845
735, 758, 791, 790, 757, 1847, 1880, 1879, 1846
736, 759, 792, 791, 758, 1848, 1881, 1880, 1847
737, 761, 794, 793, 760, 1850, 1883, 1882, 1849
738, 762, 795, 794, 761, 1851, 1884, 1883, 1850
739, 763, 796, 795, 762, 1852, 1885, 1884, 1851
740, 764, 797, 796, 763, 1853, 1886, 1885, 1852
741, 765, 798, 797, 764, 1854, 1887, 1886, 1853
742, 766, 799, 798, 765, 1855, 1888, 1887, 1854
743, 767, 800, 799, 766, 1856, 1889, 1888, 1855
744, 768, 801, 800, 767, 1857, 1890, 1889, 1856
745, 769, 802, 801, 768, 1858, 1891, 1890, 1857
746, 770, 803, 802, 769, 1859, 1892, 1891, 1858
747, 771, 804, 803, 770, 1860, 1893, 1892, 1859
748, 772, 805, 804, 771, 1861, 1894, 1893, 1860
749, 773, 806, 805, 772, 1862, 1895, 1894, 1861
750, 774, 807, 806, 773, 1863, 1896, 1895, 1862
751, 775, 808, 807, 774, 1864, 1897, 1896, 1863
752, 776, 809, 808, 775, 1865, 1898, 1897, 1864
753, 777, 810, 809, 776, 1866, 1899, 1898, 1865
754, 778, 811, 810, 777, 1867, 1900, 1899, 1866
755, 779, 812, 811, 778, 1868, 1901, 1900, 1867
756, 780, 813, 812, 779, 1869, 1902, 1901, 1868
757, 781, 814, 813, 780, 1870, 1903, 1902, 1869
758, 782, 815, 814, 781, 1871, 1904, 1903, 1870
759, 783, 816, 815, 782, 1872, 1905, 1904, 1871
760, 784, 817, 816, 783, 1873, 1906, 1905, 1872
761, 785, 818, 817, 784, 1874, 1907, 1906, 1873
762, 786, 819, 818, 785, 1875, 1908, 1907, 1874
763, 787, 820, 819, 786, 1876, 1909, 1908, 1875
764, 788, 821, 820, 787, 1877, 1910, 1909, 1876
765, 789, 822, 821, 788, 1878, 1911, 1910, 1877
766, 790, 823, 822, 789, 1879, 1912, 1911, 1878
767, 791, 824, 823, 790, 1880, 1913, 1912, 1879
768, 792, 825, 824, 791, 1881, 1914, 1913, 1880
769, 794, 827, 826, 793, 1883, 1916, 1915, 1882
770, 795, 828, 827, 794, 1884, 1917, 1916, 1883
771, 796, 829, 828, 795, 1885, 1918, 1917, 1884
772, 797, 830, 829, 796, 1886, 1919, 1918, 1885
773, 798, 831, 830, 797, 1887, 1920, 1919, 1886
774, 799, 832, 831, 798, 1888, 1921, 1920, 1887
775, 800, 833, 832, 799, 1889, 1922, 1921, 1888
776, 801, 834, 833, 800, 1890, 1923, 1922, 1889
777, 802, 835, 834, 801, 1891, 1924, 1923, 1890
778, 803, 836, 835, 802, 1892, 1925, 1924, 1891
779, 804, 837, 836, 803, 1893, 1926, 1925, 1892
780, 805, 838, 837, 804, 1894, 1927, 1926, 1893
781, 806, 839, 838, 805, 1895, 1928, 1927, 1894
782, 807, 840, 839, 806, 1896, 1929, 1928, 1895
783, 808, 841, 840, 807, 1897, 1930, 1929, 1896
784, 809, 842, 841, 808, 1898, 1931, 1930, 1897
785, 810, 843, 842, 809, 1899, 1932, 1931, 1898
786, 811, 844, 843, 810, 1900, 1933, 1932, 1899
787, 812, 845, 844, 811, 1901, 1934, 1933, 1900
788, 813, 846, 845, 812, 1902, 1935, 1934, 1901
789, 814, 847, 846, 813, 1903, 1936, 1935, 1902
790, 815, 848, 847, 814, 1904, 1937, 1936, 1903
791, 816, 849, 848, 815, 1905, 1938, 1937, 1904
792, 817, 850, 849, 816, 1906, 1939, 1938, 1905
793, 818, 851, 850, 817, 1907, 1940, 1939, 1906
794, 819, 852, 851, 818, 1908, 1941, 1940, 1907
795, 820, 853, 852, 819, 1909, 1942, 1941, 1908
796, 821, 854, 853, 820, 1910, 1943, 1942, 1909
797, 822, 855, 854, 821, 1911, 1944, 1943, 1910
798, 823, 856, 855, 822, 1912, 1945, 1944, 1911
799, 824, 857, 856, 823, 1913, 1946, 1945, 1912
800, 825, 858, 857, 824, 1914, 1947, 1946, 1913
801, 827, 860, 859, 826, 1916, 1949, 1948, 1915
802, 828, 861, 860, 827, 1917, 1950, 1949, 1916
803, 829, 862, 861, 828, 1918, 1951, 1950, 1917
804, 830, 863, 862, 829, 1919, 1952, 1951, 1918
805, 831, 864, 863, 830, 1920, 1953, 1952, 1919
806, 832, 865, 864, 831, 1921, 1954, 1953, 1920
807, 833, 866, 865, 832, 1922, 1955, 1954, 1921
808, 834, 867, 866, 833, 1923, 1956, 1955, 1922
809, 835, 868, 867, 834, 1924, 1957, 1956, 1923
810, 836, 869, 868, 835, 1925, 1958, 1957, 1924
811, 837, 870, 869, 836, 1926, 1959, 1958, 1925
812, 838, 871, 870, 837, 1927, 1960, 1959, 1926
813, 839, 872, 871, 838, 1928, 1961, 1960, 1927
814, 840, 873, 872, 839, 1929, 1962, 1961, 1928
815, 841, 874, 873, 840, 1930, 1963, 1962, 1929
816, 842, 875, 874, 841, 1931, 1964, 1963, 1930
817, 843, 876, 875, 842, 1932, 1965, 1964, 1931
818, 844, 877, 876, 843, 1933, 1966, 1965, 1932
819, 845, 878, 877, 844, 1934, 1967, 1966, 1933
820, 846, 879, 878, 845, 1935, 1968, 1967, 1934
821, 847, 880, 879, 846, 1936, 1969, 1968, 1935
822, 848, 881, 880, 847, 1937, 1970, 1969, 1936
823, 849, 882, 881, 848, 1938, 1971, 1970, 1937
824, 850, 883, 882, 849, 1939, 1972, 1971, 1938
825, 851, 884, 883, 850, 1940, 1973, 1972, 1939
826, 852, 885, 884, 851, 1941, 1974, 1973, 1940
827, 853, 886, 885, 852, 1942, 1975, 1974, 1941
828, 854, 887, 886, 853, 1943, 1976, 1975, 1942
829, 855, 888, 887, 854, 1944, 1977, 1976, 1943
830, 856, 889, 888, 855, 1945, 1978, 1977, 1944
831, 857, 890, 889, 856, 1946, 1979, 1978, 1945
832, 858, 891, 890, 857, 1947, 1980, 1979, 1946
833, 860, 893, 892, 859, 1949, 1982, 1981, 1948
834, 861, 894, 893, 860, 1950, 1983, 1982, 1949
835, 862, 895, 894, 861, 1951, 1984, 1983, 1950
836, 863, 896, 895, 862, 1952, 1985, 1984, 1951
837, 864, 897, 896, 863, 1953, 1986, 1985, 1952
838, 865, 898, 897, 864, 1954, 1987, 1986, 1953
839, 866, 899, 898, 865, 1955, 1988, 1987, 1954
840, 867, 900, 899, 866, 1956, 1989, 1988, 1955
841, 868, 901, 900, 867, 1957, 1990, 1989, 1956
842, 869, 902, 901, 868, 1958, 1991, 1990, 1957
843, 870, 903, 902, 869, 1959, 1992, 1991, 1958
844, 871, 904, 903, 870, 1960, 1993, 1992, 1959
845, 872, 905, 904, 871, 1961, 1994, 1993, 1960
846, 873, 906, 905, 872, 1962, 1995, 1994, 1961
847, 874, 907, 906, 873, 1963, 1996, 1995, 1962
848, 875, 908, 907, 874, 1964, 1997, 1996, 1963
849, 876, 909, 908, 875, 1965, 1998, 1997, 1964
850, 877, 910, 909, 876, 1966, 1999, 1998, 1965
851, 878, 911, 910, 877, 1967, 2000, 1999, 1966
852, 879, 912, 911, 878, 1968, 2001, 2000, 1967
853, 880, 913, 912, 879, 1969, 2002, 2001, 1968
854, 881, 914, 913, 880, 1970, 2003, 2002, 1969
855, 882, 915, 914, 881, 1971, 2004, 2003, 1970
856, 883, 916, 915, 882, 1972, 2005, 2004, 1971
857, 884, 917, 916, 883, 1973, 2006, 2005, 1972
858, 885, 918, 917, 884, 1974, 2007, 2006, 1973
859, 886, 919, 918, 885, 1975, 2008, 2007, 1974
860, 887, 920, 919, 886, 1976, 2009, 2008, 1975
861, 888, 921, 920, 887, 1977, 2010, 2009, 1976
862, 889, 922, 921, 888, 1978, 2011, 2010, 1977
863, 890, 923, 922, 889, 1979, 2012, 2011, 1978
864, 891, 924, 923, 890, 1980, 2013, 2012, 1979
865, 893, 926, 925, 892, 1982, 2015, 2014, 1981
866, 894, 927, 926, 893, 1983, 2016, 2015, 1982
867, 895, 928, 927, 894, 1984, 2017, 2016, 1983
868, 896, 929, 928, 895, 1985, 2018, 2017, 1984
869, 897, 930, 929, 896, 1986, 2019, 2018, 1985
870, 898, 931, 930, 897, 1987, 2020, 2019, 1986
871, 899, 932, 931, 898, 1988, 2021, 2020, 1987
872, 900, 933, 932, 899, 1989, 2022, 2021, 1988
873, 901, 934, 933, 900, 1990, 2023, 2022, 1989
874, 902, 935, 934, 901, 1991, 2024, 2023, 1990
875, 903, 936, 935, 902, 1992, 2025, 2024, 1991
876, 904, 937, 936, 903, 1993, 2026, 2025, 1992
877, 905, 938, 937, 904, 1994, 2027, 2026, 1993
878, 906, 939, 938, 905, 1995, 2028, 2027, 1994
879, 907, 940, 939, 906, 1996, 2029, 2028, 1995
880, 908, 941, 940, 907, 1997, 2030, 2029, 1996
881, 909, 942, 941, 908, 1998, 2031, 2030, 1997
882, 910, 943, 942, 909, 1999, 2032, 2031, 1998
883, 911, 944, 943, 910, 2000, 2033, 2032, 1999
884, 912, 945, 944, 911, 2001, 2034, 2033, 2000
885, 913, 946, 945, 912, 2002, 2035, 2034, 2001
886, 914, 947, 946, 913, 2003, 2036, 2035, 2002
887, 915, 948, 947, 914, 2004, 2037, 2036, 2003
888, 916, 949, 948, 915, 2005, 2038, 2037, 2004
889, 917, 950, 949, 916, 2006, 2039, 2038, 2005
890, 918, 951, 950, 917, 2007, 2040, 2039, 2006
891, 919, 952, 951, 918, 2008, 2041, 2040, 2007
892, 920, 953, 952, 919, 2009, 2042, 2041, 2008
893, 921, 954, 953, 920, 2010, 2043, 2042, 2009
894, 922, 955, 954, 921, 2011, 2044, 2043, 2010
895, 923, 956, 955, 922, 2012, 2045, 2044, 2011
896, 924, 957, 956, 923, 2013, 2046, 2045, 2012
897, 926, 959, 958, 925, 2015, 2048, 2047, 2014
898, 927, 960, 959, 926, 2016, 2049, 2048, 2015
899, 928, 961, 960, 927, 2017, 2050, 2049, 2016
900, 929, 962, 961, 928, 2018, 2051, 2050, 2017
901, 930, 963, 962, 929, 2019, 2052, 2051, 2018
902, 931, 964, 963, 930, 2020, 2053, 2052, 2019
903, 932, 965, 964, 931, 2021, 2054, 2053, 2020
904, 933, 966, 965, 932, 2022, 2055, 2054, 2021
905, 934, 967, 966, 933, 2023, 2056, 2055, 2022
906, 935, 968, 967, 934, 2024, 2057, 2056, 2023
907, 936, 969, 968, 935, 2025, 2058, 2057, 2024
908, 937, 970, 969, 936, 2026, 2059, 2058, 2025
909, 938, 971, 970, 937, 2027, 2060, 2059, 2026
910, 939, 972, 971, 938, 2028, 2061, 2060, 2027
911, 940, 973, 972, 939, 2029, 2062, 2061, 2028
912, 941, 974, 973, 940, 2030, 2063, 2062, 2029
913, 942, 975, 974, 941, 2031, 2064, 2063, 2030
914, 943, 976, 975, 942, 2032, 2065, 2064, 2031
915, 944, 977, 976, 943, 2033, 2066, 2065, 2032
916, 945, 978, 977, 944, 2034, 2067, 2066, 2033
917, 946, 979, 978, 945, 2035, 2068, 2067, 2034
918, 947, 980, 979, 946, 2036, 2069, 2068, 2035
919, 948, 981, 980, 947, 2037, 2070, 2069, 2036
920, 949, 982, 981, 948, 2038, 2071, 2070, 2037
921, 950, 983, 982, 949, 2039, 2072, 2071, 2038
922, 951, 984, 983, 950, 2040, 2073, 2072, 2039
923, 952, 985, 984, 951, 2041, 2074, 2073, 2040
924, 953, 986, 985, 952, 2042, 2075, 2074, 2041
925, 954, 987, 986, 953, 2043, 2076, 2075, 2042
926, 955, 988, 987, 954, 2044, 2077, 2076, 2043
927, 956, 989, 988, 955, 2045, 2078, 2077, 2044
928, 957, 990, 989, 956, 2046, 2079, 2078, 2045
929, 959, 992, 991, 958, 2048, 2081, 2080, 2047
930, 960, 993, 992, 959, 2049, 2082, 2081, 2048
931, 961, 994, 993, 960, 2050, 2083, 2082, 2049
932, 962, 995, 994, 961, 2051, 2084, 2083, 2050
933, 963, 996, 995, 962, 2052, 2085, 2084, 2051
934, 964, 997, 996, 963, 2053, 2086, 2085, 2052
935, 965, 998, 997, 964, 2054, 2087, 2086, 2053
936, 966, 999, 998, 965, 2055, 2088, 2087, 2054
937, 967, 1000, 999, 966, 2056, 2089, 2088, 2055
938, 968, 1001, 1000, 967, 2057, 2090, 2089, 2056
939, 969, 1002, 1001, 968, 2058, 2091, 2090, 2057
940, 970, 1003, 1002, 969, 2059, 2092, 2091, 2058
941, 971, 1004, 1003, 970, 2060, 2093, 2092, 2059
942, 972, 1005, 1004, 971, 2061, 2094, 2093, 2060
943, 973, 1006, 1005, 972, 2062, 2095, 2094, 2061
944, 974, 1007, 1006, 973, 2063, 2096, 2095, 2062
945, 975, 1008, 1007, 974, 2064, 2097, 2096, 2063
946, 976, 1009, 1008, 975, 2065, 2098, 2097, 2064
947, 977, 1010, 1009, 976, 2066, 2099, 2098, 2065
948, 978, 1011, 1010, 977, 2067, 2100, 2099, 2066
949, 979, 1012, 1011, 978, 2068, 2101, 2100, 2067
950, 980, 1013, 1012, 979, 2069, 2102, 2101, 2068
951, 981, 1014, 1013, 980, 2070, 2103, 2102, 2069
952, 982, 1015, 1014, 981, 2071, 2104, 2103, 2070
953, 983, 1016, 1015, 982, 2072, 2105, 2104, 2071
954, 984, 1017, 1016, 983, 2073, 2106, 2105, 2072
955, 985, 1018, 1017, 984, 2074, 2107, 2106, 2073
956, 986, 1019, 1018, 985, 2075, 2108, 2107, 2074
957, 987, 1020, 1019, 986, 2076, 2109, 2108, 2075
958, 988, 1021, 1020, 987, 2077, 2110, 2109, 2076
959, 989, 1022, 1021, 988, 2078, 2111, 2110, 2077
960, 990, 1023, 1022, 989, 2079, 2112, 2111, 2078
961, 992, 1025, 1024, 991, 2081, 2114, 2113, 2080
962, 993, 1026, 1025, 992, 2082, 2115, 2114, 2081
963, 994, 1027, 1026, 993, 2083, 2116, 2115, 2082
964, 995, 1028, 1027, 994, 2084, 2117, 2116, 2083
965, 996, 1029, 1028, 995, 2085, 2118, 2117, 2084
966, 997, 1030, 1029, 996, 2086, 2119, 2118, 2085
967, 998, 1031, 1030, 997, 2087, 2120, 2119, 2086
968, 999, 1032, 1031, 998, 2088, 2121, 2120, 2087
969, 1000, 1033, 1032, 999, 2089, 2122, 2121, 2088
970, 1001, 1034, 1033, 1000, 2090, 2123, 2122, 2089
971, 1002, 1035, 1034, 1001, 2091, 2124, 2123, 2090
972, 1003, 1036, 1035, 1002, 2092, 2125, 2124, 2091
973, 1004, 1037, 1036, 1003, 2093, 2126, 2125, 2092
974, 1005, 1038, 1037, 1004, 2094, 2127, 2126, 2093
975, 1006, 1039, 1038, 1005, 2095, 2128, 2127, 2094
976, 1007, 1040, 1039, 1006, 2096, 2129, 2128, 2095
977, 1008, 1041, 1040, 1007, 2097, 2130, 2129, 2096
978, 1009, 1042, 1041, 1008, 2098, 2131, 2130, 2097
979, 1010, 1043, 1042, 1009, 2099, 2132, 2131, 2098
980, 1011, 1044, 1043, 1010, 2100, 2133, 2132, 2099
981, 1012, 1045, 1044, 1011, 2101, 2134, 2133, 2100
982, 1013, 1046, 1045, 1012, 2102, 2135, 2134, 2101
983, 1014, 1047, 1046, 1013, 2103, 2136, 2135, 2102
984, 1015, 1048, 1047, 1014, 2104, 2137, 2136, 2103
985, 1016, 1049, 1048, 1015, 2105, 2138, 2137, 2104
986, 1017, 1050, 1049, 1016, 2106, 2139, 2138, 2105
987, 1018, 1051, 1050, 1017, 2107, 2140, 2139, 2106
988, 1019, 1052, 1051, 1018, 2108, 2141, 2140, 2107
989, 1020, 1053, 1052, 1019, 2109, 2142, 2141, 2108
990, 1021, 1054, 1053, 1020, 2110, 2143, 2142, 2109
991, 1022, 1055, 1054, 1021, 2111, 2144, 2143, 2110
992, 1023, 1056, 1055, 1022, 2112, 2145, 2144, 2111
993, 1025, 1058, 1057, 1024, 2114, 2147, 2146, 2113
994, 1026, 1059, 1058, 1025, 2115, 2148, 2147, 2114
995, 1027, 1060, 1059, 1026, 2116, 2149, 2148, 2115
996, 1028, 1061, 1060, 1027, 2117, 2150, 2149, 2116
997, 1029, 1062, 1061, 1028, 2118, 2151, 2150, 2117
998, 1030, 1063, 1062, 1029, 2119, 2152, 2151, 2118
999, 1031, 1064, 1063, 1030, 2120, 2153, 2152, 2119
1000, 1032, 1065, 1064, 1031, 2121, 2154, 2153, 2120
1001, 1033, 1066, 1065, 1032, 2122, 2155, 2154, 2121
1002, 1034, 1067, 1066, 1033, 2123, 2156, 2155, 2122
1003, 1035, 1068, 1067, 1034, 2124, 2157, 2156, 2123
1004, 1036, 1069, 1068, 1035, 2125, 2158, 2157, 2124
1005, 1037, 1070, 1069, 1036, 2126, 2159, 2158, 2125
1006, 1038, 1071, 1070, 1037, 2127, 2160, 2159, 2126
1007, 1039, 1072, 1071, 1038, 2128, 2161, 2160, 2127
1008, 1040, 1073, 1072, 1039, 2129, 2162, 2161, 2128
1009, 1041, 1074, 1073, 1040, 2130, 2163, 2162, 2129
1010, 1042, 1075, 1074, 1041, 2131, 2164, 2163, 2130
1011, 1043, 1076, 1075, 1042, 2132, 2165, 2164, 2131
1012, 1044, 1077, 1076, 1043, 2133, 2166, 2165, 2132
1013, 1045, 1078, 1077, 1044, 2134, 2167, 2166, 2133
1014, 1046, 1079, 1078, 1045, 2135, 2168, 2167, 2134
1015, 1047, 1080, 1079, 1046, 2136, 2169, 2168, 2135
1016, 1048, 1081, 1080, 1047, 2137, 2170, 2169, 2136
1017, 1049, 1082, 1081, 1048, 2138, 2171, 2170, 2137
1018, 1050, 1083, 1082, 1049, 2139, 2172, 2171, 2138
1019, 1051, 1084, 1083, 1050, 2140, 2173, 2172, 2139
1020, 1052, 1085, 1084, 1051, 2141, 2174, 2173, 2140
1021, 1053, 1086, 1085, 1052, 2142, 2175, 2174, 2141
1022, 1054, 1087, 1086, 1053, 2143, 2176, 2175, 2142
1023, 1055, 1088, 1087, 1054, 2144, 2177, 2176, 2143
1024, 1056, 1089, 1088, 1055, 2145, 2178, 2177, 2144
1025, 1091, 1124, 1123, 1090, 2180, 2213, 2212, 2179
1026, 1092, 1125, 1124, 1091, 2181, 2214, 2213, 2180
1027, 1093, 1126, 1125, 1092, 2182, 2215, 2214, 2181
1028, 1094, 1127, 1126, 1093, 2183, 2216, 2215, 2182
1029, 1095, 1128, 1127, 1094, 2184, 2217, 2216, 2183
1030, 1096, 1129, 1128, 1095, 2185, 2218, 2217, 2184
1031, 1097, 1130, 1129, 1096, 2186, 2219, 2218, 2185
1032, 1098, 1131, 1130, 1097, 2187, 2220, 2219, 2186
1033, 1099, 1132, 1131, 1098, 2188, 2221, 2220, 2187
1034, 1100, 1133, 1132, 1099, 2189, 2222, 2221, 2188
1035, 1101, 1134, 1133, 1100, 2190, 2223, 2222, 2189
1036, 1102, 1135, 1134, 1101, 2191, 2224, 2223, 2190
1037, 1103, 1136, 1135, 1102, 2192, 2225, 2224, 2191
1038, 1104, 1137, 1136, 1103, 2193, 2226, 2225, 2192
1039, 1105, 1138, 1137, 1104, 2194, 2227, 2226, 2193
1040, 1106, 1139, 1138, 1105, 2195, 2228, 2227, 2194
1041, 1107, 1140, 1139, 1106, 2196, 2229, 2228, 2195
1042, 1108, 1141, 1140, 1107, 2197, 2230, 2229, 2196
1043, 1109, 1142, 1141, 1108, 2198, 2231, 2230, 2197
1044, 1110, 1143, 1142, 1109, 2199, 2232, 2231, 2198
1045, 1111, 1144, 1143, 1110, 2200, 2233, 2232, 2199
1046, 1112, 1145, 1144, 1111, 2201, 2234, 2233, 2200
1047, 1113, 1146, 1145, 1112, 2202, 2235, 2234, 2201
1048, 1114, 1147, 1146, 1113, 2203, 2236, 2235, 2202
1049, 1115, 1148, 1147, 1114, 2204, 2237, 2236, 2203
1050, 1116, 1149, 1148, 1115, 2205, 2238, 2237, 2204
1051, 1117, 1150, 1149, 1116, 2206, 2239, 2238, 2205
1052, 1118, 1151, 1150, 1117, 2207, 2240, 2239, 2206
1053, 1119, 1152, 1151, 1118, 2208, 2241, 2240, 2207
1054, 1120, 1153, 1152, 1119, 2209, 2242, 2241, 2208
1055, 1121, 1154, 1153, 1120, 2210, 2243, 2242, 2209
1056, 1122, 1155, 1154, 1121, 2211, 2244, 2243, 2210
1057, 1124, 1157, 1156, 1123, 2213, 2246, 2245, 2212
1058, 1125, 1158, 1157, 1124, 2214, 2247, 2246, 2213
1059, 1126, 1159, 1158, 1125, 2215, 2248, 2247, 2214
1060, 1127, 1160, 1159, 1126, 2216, 2249, 2248, 2215
1061, 1128, 1161, 1160, 1127, 2217, 2250, 2249, 2216
1062, 1129, 1162, 1161, 1128, 2218, 2251, 2250, 2217
1063, 1130, 1163, 1162, 1129, 2219, 2252, 2251, 2218
1064, 1131, 1164, 1163, 1130, 2220, 2253, 2252, 2219
1065, 1132, 1165, 1164, 1131, 2221, 2254, 2253, 2220
1066, 1133, 1166, 1165, 1132, 2222, 2255, 2254, 2221
1067, 1134, 1167, 1166, 1133, 2223, 2256, 2255, 2222
1068, 1135, 1168, 1167, 1134, 2224, 2257, 2256, 2223
1069, 1136, 1169, 1168, 1135, 2225, 2258, 2257, 2224
1070, 1137, 1170, 1169, 1136, 2226, 2259, 2258, 2225
1071, 1138, 1171, 1170, 1137, 2227, 2260, 2259, 2226
1072, 1139, 1172, 1171, 1138, 2228, 2261, 2260, 2227
1073, 1140, 1173, 1172, 1139, 2229, 2262, 2261, 2228
1074, 1141, 1174, 1173, 1140, 2230, 2263, 2262, 2229
1075, 1142, 1175, 1174, 1141, 2231, 2264, 2263, 2230
1076, 1143, 1176, 1175, 1142, 2232, 2265, 2264, 2231
1077, 1144, 1177, 1176, 1143, 2233, 2266, 2265, 2232
1078, 1145, 1178, 1177, 1144, 2234, 2267, 2266, 2233
1079, 1146, 1179, 1178, 1145, 2235, 2268, 2267, 2234
1080, 1147, 1180, 1179, 1146, 2236, 2269, 2268, 2235
1081, 1148, 1181, 1180, 1147, 2237, 2270, 2269, 2236
1082, 1149, 1182, 1181, 1148, 2238, 2271, 2270, 2237
1083, 1150, 1183, 1182, 1149, 2239, 2272, 2271, 2238
1084, 1151, 1184, 1183, 1150, 2240, 2273, 2272, 2239
1085, 1152, 1185, 1184, 1151, 2241, 2274, 2273, 2240
1086, 1153, 1186, 1185, 1152, 2242, 2275, 2274, 2241
1087, 1154, 1187, 1186, 1153, 2243, 2276, 2275, 2242
1088, 1155, 1188, 1187, 1154, 2244, 2277, 2276, 2243
1089, 1157, 1190, 1189, 1156, 2246, 2279, 2278, 2245
1090, 1158, 1191, 1190, 1157, 2247, 2280, 2279, 2246
1091, 1159, 1192, 1191, 1158, 2248, 2281, 2280, 2247
1092, 1160, 1193, 1192, 1159, 2249, 2282, 2281, 2248
1093, 1161, 1194, 1193, 1160, 2250, 2283, 2282, 2249
1094, 1162, 1195, 1194, 1161, 2251, 2284, 2283, 2250
1095, 1163, 1196, 1195, 1162, 2252, 2285, 2284, 2251
1096, 1164, 1197, 1196, 1163, 2253, 2286, 2285, 2252
1097, 1165, 1198, 1197, 1164, 2254, 2287, 2286, 2253
1098, 1166, 1199, 1198, 1165, 2255, 2288, 2287, 2254
1099, 1167, 1200, 1199, 1166, 2256, 2289, 2288, 2255
1100, 1168, 1201, 1200, 1167, 2257, 2290, 2289, 2256
1101, 1169, 1202, 1201, 1168, 2258, 2291, 2290, 2257
1102, 1170, 1203, 1202, 1169, 2259, 2292, 2291, 2258
1103, 1171, 1204, 1203, 1170, 2260, 2293, 2292, 2259
1104, 1172, 1205, 1204, 1171, 2261, 2294, 2293, 2260
1105, 1173, 1206, 1205, 1172, 2262, 2295, 2294, 2261
1106, 1174, 1207, 1206, 1173, 2263, 2296, 2295, 2262
1107, 1175, 1208, 1207, 1174, 2264, 2297, 2296, 2263
1108, 1176, 1209, 1208, 1175, 2265, 2298, 2297, 2264
1109, 1177, 1210, 1209, 1176, 2266, 2299, 2298, 2265
1110, 1178, 1211, 1210, 1177, 2267, 2300, 2299, 2266
1111, 1179, 1212, 1211, 1178, 2268, 2301, 2300, 2267
1112, 1180, 1213, 1212, 1179, 2269, 2302, 2301, 2268
1113, 1181, 1214, 1213, 1180, 2270, 2303, 2302, 2269
1114, 1182, 1215, 1214, 1181, 2271, 2304, 2303, 2270
1115, 1183, 1216, 1215, 1182, 2272, 2305, 2304, 2271
1116, 1184, 1217, 1216, 1183, 2273, 2306, 2305, 2272
1117, 1185, 1218, 1217, 1184, 2274, 2307, 2306, 2273
1118, 1186, 1219, 1218, 1185, 2275, 2308, 2307, 2274
1119, 1187, 1220, 1219, 1186, 2276, 2309, 2308, 2275
1120, 1188, 1221, 1220, 1187, 2277, 2310, 2309, 2276
1121, 1190, 1223, 1222, 1189, 2279, 2312, 2311, 2278
1122, 1191, 1224, 1223, 1190, 2280, 2313, 2312, 2279
1123, 1192, 1225, 1224, 1191, 2281, 2314, 2313, 2280
1124, 1193, 1226, 1225, 1192, 2282, 2315, 2314, 2281
1125, 1194, 1227, 1226, 1193, 2283, 2316, 2315, 2282
1126, 1195, 1228, 1227, 1194, 2284, 2317, 2316, 2283
1127, 1196, 1229, 1228, 1195, 2285, 2318, 2317, 2284
1128, 1197, 1230, 1229, 1196, 2286, 2319, 2318, 2285
1129, 1198, 1231, 1230, 1197, 2287, 2320, 2319, 2286
1130, 1199, 1232, 1231, 1198, 2288, 2321, 2320, 2287
1131, 1200, 1233, 1232, 1199, 2289, 2322, 2321, 2288
1132, 1201, 1234, 1233, 1200, 2290, 2323, 2322, 2289
1133, 1202, 1235, 1234, 1201, 2291, 2324, 2323, 2290
1134, 1203, 1236, 1235, 1202, 2292, 2325, 2324, 2291
1135, 1204, 1237, 1236, 1203, 2293, 2326, 2325, 2292
1136, 1205, 1238, 1237, 1204, 2294, 2327, 2326, 2293
1137, 1206, 1239, 1238, 1205, 2295, 2328, 2327, 2294
1138, 1207, 1240, 1239, 1206, 2296, 2329, 2328, 2295
1139, 1208, 1241, 1240, 1207, 2297, 2330, 2329, 2296
1140, 1209, 1242, 1241, 1208, 2298, 2331, 2330, 2297
1141, 1210, 1243, 1242, 1209, 2299, 2332, 2331, 2298
1142, 1211, 1244, 1243, 1210, 2300, 2333, 2332, 2299
1143, 1212, 1245, 1244, 1211, 2301, 2334, 2333, 2300
1144, 1213, 1246, 1245, 1212, 2302, 2335, 2334, 2301
1145, 1214, 1247, 1246, 1213, 2303, 2336, 2335, 2302
1146, 1215, 1248, 1247, 1214, 2304, 2337, 2336, 2303
1147, 1216, 1249, 1248, 1215, 2305, 2338, 2337, 2304
1148, 1217, 1250, 1249, 1216, 2306, 2339, 2338, 2305
1149, 1218, 1251, 1250, 1217, 2307, 2340, 2339, 2306
1150, 1219, 1252, 1251, 1218, 2308, 2341, 2340, 2307
1151, 1220, 1253, 1252, 1219, 2309, 2342, 2341, 2308
1152, 1221, 1254, 1253, 1220, 2310, 2343, 2342, 2309
1153, 1223, 1256, 1255, 1222, 2312, 2345, 2344, 2311
1154, 1224, 1257, 1256, 1223, 2313, 2346, 2345, 2312
1155, 1225, 1258, 1257, 1224, 2314, 2347, 2346, 2313
1156, 1226, 1259, 1258, 1225, 2315, 2348, 2347, 2314
1157, 1227, 1260, 1259, 1226, 2316, 2349, 2348, 2315
1158, 1228, 1261, 1260, 1227, 2317, 2350, 2349, 2316
1159, 1229, 1262, 1261, 1228, 2318, 2351, 2350, 2317
1160, 1230, 1263, 1262, 1229, 2319, 2352, 2351, 2318
1161, 1231, 1264, 1263, 1230, 2320, 2353, 2352, 2319
1162, 1232, 1265, 1264, 1231, 2321, 2354, 2353, 2320
1163, 1233, 1266, 1265, 1232, 2322, 2355, 2354, 2321
1164, 1234, 1267, 1266, 1233, 2323, 2356, 2355, 2322
1165, 1235, 1268, 1267, 1234, 2324, 2357, 2356, 2323
1166, 1236, 1269, 1268, 1235, 2325, 2358, 2357, 2324
1167, 1237, 1270, 1269, 1236, 2326, 2359, 2358, 2325
1168, 1238, 1271, 1270, 1237, 2327, 2360, 2359, 2326
1169, 1239, 1272, 1271, 1238, 2328, 2361, 2360, 2327
1170, 1240, 1273, 1272, 1239, 2329, 2362, 2361, 2328
1171, 1241, 1274, 1273, 1240, 2330, 2363, 2362, 2329
1172, 1242, 1275, 1274, 1241, 2331, 2364, 2363, 2330
1173, 1243, 1276, 1275, 1242, 2332, 2365, 2364, 2331
1174, 1244, 1277, 1276, 1243, 2333, 2366, 2365, 2332
1175, 1245, 1278, 1277, 1244, 2334, 2367, 2366, 2333
1176, 1246, 1279, 1278, 1245, 2335, 2368, 2367, 2334
1177, 1247, 1280, 1279, 1246, 2336, 2369, 2368, 2335
1178, 1248, 1281, 1280, 1247, 2337, 2370, 2369, 2336
1179, 1249, 1282, 1281, 1248, 2338, 2371, 2370, 2337
1180, 1250, 1283, 1282, 1249, 2339, 2372, 2371, 2338
1181, 1251, 1284, 1283, 1250, 2340, 2373, 2372, 2339
1182, 1252, 1285, 1284, 1251, 2341, 2374, 2373, 2340
1183, 1253, 1286, 1285, 1252, 2342, 2375, 2374, 2341
1184, 1254, 1287, 1286, 1253, 2343, 2376, 2375, 2342
1185, 1256, 1289, 1288, 1255, 2345, 2378, 2377, 2344
1186, 1257, 1290, 1289, 1256, 2346, 2379, 2378, 2345
1187, 1258, 1291, 1290, 1257, 2347, 2380, 2379, 2346
1188, 1259, 1292, 1291, 1258, 2348, 2381, 2380, 2347
1189, 1260, 1293, 1292, 1259, 2349, 2382, 2381, 2348
1190, 1261, 1294, 1293, 1260, 2350, 2383, 2382, 2349
1191, 1262, 1295, 1294, 1261, 2351, 2384, 2383, 2350
1192, 1263, 1296, 1295, 1262, 2352, 2385, 2384, 2351
1193, 1264, 1297, 1296, 1263, 2353, 2386, 2385, 2352
1194, 1265, 1298, 1297, 1264, 2354, 2387, 2386, 2353
1195, 1266, 1299, 1298, 1265, 2355, 2388, 2387, 2354
1196, 1267, 1300, 1299, 1266, 2356, 2389, 2388, 2355
1197, 1268, 1301, 1300, 1267, 2357, 2390, 2389, 2356
1198, 1269, 1302, 1301, 1268, 2358, 2391, 2390, 2357
1199, 1270, 1303, 1302, 1269, 2359, 2392, 2391, 2358
1200, 1271, 1304, 1303, 1270, 2360, 2393, 2392, 2359
1201, 1272, 1305, 1304, 1271, 2361, 2394, 2393, 2360
1202, 1273, 1306, 1305, 1272, 2362, 2395, 2394, 2361
1203, 1274, 1307, 1306, 1273, 2363, 2396, 2395, 2362
1204, 1275, 1308, 1307, 1274, 2364, 2397, 2396, 2363
1205, 1276, 1309, 1308, 1275, 2365, 2398, 2397, 2364
1206, 1277, 1310, 1309, 1276, 2366, 2399, 2398, 2365
1207, 1278, 1311, 1310, 1277, 2367, 2400, 2399, 2366
1208, 1279, 1312, 1311, 1278, 2368, 2401, 2400, 2367
1209, 1280, 1313, 1312, 1279, 2369, 2402, 2401, 2368
1210, 1281, 1314, 1313, 1280, 2370, 2403, 2402, 2369
1211, 1282, 1315, 1314, 1281, 2371, 2404, 2403, 2370
1212, 1283, 1316, 1315, 1282, 2372, 2405, 2404, 2371
1213, 1284, 1317, 1316, 1283, 2373, 2406, 2405, 2372
1214, 1285, 1318, 1317, 1284, 2374, 2407, 2406, 2373
1215, 1286, 1319, 1318, 1285, 2375, 2408, 2407, 2374
1216, 1287, 1320, 1319, 1286, 2376, 2409, 2408, 2375
1217, 1289, 1322, 1321, 1288, 2378, 2411, 2410, 2377
1218, 1290, 1323, 1322, 1289, 2379, 2412, 2411, 2378
1219, 1291, 1324, 1323, 1290, 2380, 2413, 2412, 2379
1220, 1292, 1325, 1324, 1291, 2381, 2414, 2413, 2380
1221, 1293, 1326, 1325, 1292, 2382, 2415, 2414, 2381
1222, 1294, 1327, 1326, 1293, 2383, 2416, 2415, 2382
1223, 1295, 1328, 1327, 1294, 2384, 2417, 2416, 2383
1224, 1296, 1329, 1328, 1295, 2385, 2418, 2417, 2384
1225, 1297, 1330, 1329, 1296, 2386, 2419, 2418, 2385
1226, 1298, 1331, 1330, 1297, 2387, 2420, 2419, 2386
1227, 1299, 1332, 1331, 1298, 2388, 2421, 2420, 2387
1228, 1300, 1333, 1332, 1299, 2389, 2422, 2421, 2388
1229, 1301, 1334, 1333, 1300, 2390, 2423, 2422, 2389
1230, 1302, 1335, 1334, 1301, 2391, 2424, 2423, 2390
1231, 1303, 1336, 1335, 1302, 2392, 2425, 2424, 2391
1232, 1304, 1337, 1336, 1303, 2393, 2426, 2425, 2392
1233, 1305, 1338, 1337, 1304, 2394, 2427, 2426, 2393
1234, 1306, 1339, 1338, 1305, 2395, 2428, 2427, 2394
1235, 1307, 1340, 1339, 1306, 2396, 2429, 2428, 2395
1236, 1308, 1341, 1340, 1307, 2397, 2430, 2429, 2396
1237, 1309, 1342, 1341, 1308, 2398, 2431, 2430, 2397
1238, 1310, 1343, 1342, 1309, 2399, 2432, 2431, 2398
1239, 1311, 1344, 1343, 1310, 2400, 2433, 2432, 2399
1240, 1312, 1345, 1344, 1311, 2401, 2434, 2433, 2400
1241, 1313, 1346, 1345, 1312, 2402, 2435, 2434, 2401
1242, 1314, 1347, 1346, 1313, 2403, 2436, 2435, 2402
1243, 1315, 1348, 1347, 1314, 2404, 2437, 2436, 2403
1244, 1316, 1349, 1348, 1315, 2405, 2438, 2437, 2404
1245, 1317, 1350, 1349, 1316, 2406, 2439, 2438, 2405
1246, 1318, 1351, 1350, 1317, 2407, 2440, 2439, 2406
1247, 1319, 1352, 1351, 1318, 2408, 2441, 2440, 2407
1248, 1320, 1353, 1352, 1319, 2409, 2442, 2441, 2408
1249, 1322, 1355, 1354, 1321, 2411, 2444, 2443, 2410
1250, 1323, 1356, 1355, 1322, 2412, 2445, 2444, 2411
1251, 1324, 1357, 1356, 1323, 2413, 2446, 2445, 2412
1252, 1325, 1358, 1357, 1324, 2414, 2447, 2446, 2413
1253, 1326, 1359, 1358, 1325, 2415, 2448, 2447, 2414
1254, 1327, 1360, 1359, 1326, 2416, 2449, 2448, 2415
1255, 1328, 1361, 1360, 1327, 2417, 2450, 2449, 2416
1256, 1329, 1362, 1361, 1328, 2418, 2451, 2450, 2417
1257, 1330, 1363, 1362, 1329, 2419, 2452, 2451, 2418
1258, 1331, 1364, 1363, 1330, 2420, 2453, 2452, 2419
1259, 1332, 1365, 1364, 1331, 2421, 2454, 2453, 2420
1260, 1333, 1366, 1365, 1332, 2422, 2455, 2454, 2421
1261, 1334, 1367, 1366, 1333, 2423, 2456, 2455, 2422
1262, 1335, 1368, 1367, 1334, 2424, 2457, 2456, 2423
1263, 1336, 1369, 1368, 1335, 2425, 2458, 2457, 2424
1264, 1337, 1370, 1369, 1336, 2426, 2459, 2458, 2425
1265, 1338, 1371, 1370, 1337, 2427, 2460, 2459, 2426
1266, 1339, 1372, 1371, 1338, 2428, 2461, 2460, 2427
1267, 1340, 1373, 1372, 1339, 2429, 2462, 2461, 2428
1268, 1341, 1374, 1373, 1340, 2430, 2463, 2462, 2429
1269, 1342, 1375, 1374, 1341, 2431, 2464, 2463, 2430
1270, 1343, 1376, 1375, 1342, 2432, 2465, 2464, 2431
1271, 1344, 1377, 1376, 1343, 2433, 2466, 2465, 2432
1272, 1345, 1378, 1377, 1344, 2434, 2467, 2466, 2433
1273, 1346, 1379, 1378, 1345, 2435, 2468, 2467, 2434
1274, 1347, 1380, 1379, 1346, 2436, 2469, 2468, 2435
1275, 1348, 1381, 1380, 1347, 2437, 2470, 2469, 2436
1276, 1349, 1382, 1381, 1348, 2438, 2471, 2470, 2437
1277, 1350, 1383, 1382, 1349, 2439, 2472, 2471, 2438
1278, 1351, 1384, 1383, 1350, 2440, 2473, 2472, 2439
1279, 1352, 1385, 1384, 1351, 2441, 2474, 2473, 2440
1280, 1353, 1386, 1385, 1352, 2442, 2475, 2474, 2441
1281, 1355, 1388, 1387, 1354, 2444, 2477, 2476, 2443
1282, 1356, 1389, 1388, 1355, 2445, 2478, 2477, 2444
1283, 1357, 1390, 1389, 1356, 2446, 2479, 2478, 2445
1284, 1358, 1391, 1390, 1357, 2447, 2480, 2479, 2446
1285, 1359, 1392, 1391, 1358, 2448, 2481, 2480, 2447
1286, 1360, 1393, 1392, 1359, 2449, 2482, 2481, 2448
1287, 1361, 1394, 1393, 1360, 2450, 2483, 2482, 2449
1288, 1362, 1395, 1394, 1361, 2451, 2484, 2483, 2450
1289, 1363, 1396, 1395, 1362, 2452, 2485, 2484, 2451
1290, 1364, 1397, 1396, 1363, 2453, 2486, 2485, 2452
1291, 1365, 1398, 1397, 1364, 2454, 2487, 2486, 2453
1292, 1366, 1399, 1398, 1365, 2455, 2488, 2487, 2454
1293, 1367, 1400, 1399, 1366, 2456, 2489, 2488, 2455
1294, 1368, 1401, 1400, 1367, 2457, 2490, 2489, 2456
1295, 1369, 1402, 1401, 1368, 2458, 2491, 2490, 2457
1296, 1370, 1403, 1402, 1369, 2459, 2492, 2491, 2458
1297, 1371, 1404, 1403, 1370, 2460, 2493, 2492, 2459
1298, 1372, 1405, 1404, 1371, 2461, 2494, 2493, 2460
1299, 1373, 1406, 1405, 1372, 2462, 2495, 2494, 2461
1300, 1374, 1407, 1406, 1373, 2463, 2496, 2495, 2462
1301, 1375, 1408, 1407, 1374, 2464, 2497, 2496, 2463
1302, 1376, 1409, 1408, 1375, 2465, 2498, 2497, 2464
1303, 1377, 1410, 1409, 1376, 2466, 2499, 2498, 2465
1304, 1378, 1411, 1410, 1377, 2467, 2500, 2499, 2466
1305, 1379, 1412, 1411, 1378, 2468, 2501, 2500, 2467
1306, 1380, 1413, 1412, 1379, 2469, 2502, 2501, 2468
1307, 1381, 1414, 1413, 1380, 2470, 2503, 2502, 2469
1308, 1382, 1415, 1414, 1381, 2471, 2504, 2503, 2470
1309, 1383, 1416, 1415, 1382, 2472, 2505, 2504, 2471
1310, 1384, 1417, 1416, 1383, 2473, 2506, 2505, 2472
1311, 1385, 1418, 1417, 1384, 2474, 2507, 2506, 2473
1312, 1386, 1419, 1418, 1385, 2475, 2508, 2507, 2474
1313, 1388, 1421, 1420, 1387, 2477, 2510, 2509, 2476
1314, 1389, 1422, 1421, 1388, 2478, 2511, 2510, 2477
1315, 1390, 1423, 1422, 1389, 2479, 2512, 2511, 2478
1316, 1391, 1424, 1423, 1390, 2480, 2513, 2512, 2479
1317, 1392, 1425, 1424, 1391, 2481, 2514, 2513, 2480
1318, 1393, 1426, 1425, 1392, 2482, 2515, 2514, 2481
1319, 1394, 1427, 1426, 1393, 2483, 2516, 2515, 2482
1320, 1395, 1428, 1427, 1394, 2484, 2517, 2516, 2483
1321, 1396, 1429, 1428, 1395, 2485, 2518, 2517, 2484
1322, 1397, 1430, 1429, 1396, 2486, 2519, 2518, 2485
1323, 1398, 1431, 1430, 1397, 2487, 2520, 2519, 2486
1324, 1399, 1432, 1431, 1398, 2488, 2521, 2520, 2487
1325, 1400, 1433, 1432, 1399, 2489, 2522, 2521, 2488
1326, 1401, 1434, 1433, 1400, 2490, 2523, 2522, 2489
1327, 1402, 1435, 1434, 1401, 2491, 2524, 2523, 2490
1328, 1403, 1436, 1435, 1402, 2492, 2525, 2524, 2491
1329, 1404, 1437, 1436, 1403, 2493, 2526, 2525, 2492
1330, 1405, 1438, 1437, 1404, 2494, 2527, 2526, 2493
1331, 1406, 1439, 1438, 1405, 2495, 2528, 2527, 2494
1332, 1407, 1440, 1439, 1406, 2496, 2529, 2528, 2495
1333, 1408, 1441, 1440, 1407, 2497, 2530, 2529, 2496
1334, 1409, 1442, 1441, 1408, 2498, 2531, 2530, 2497
1335, 1410, 1443, 1442, 1409, 2499, 2532, 2531, 2498
1336, 1411, 1444, 1443, 1410, 2500, 2533, 2532, 2499
1337, 1412, 1445, 1444, 1411, 2501, 2534, 2533, 2500
1338, 1413, 1446, 1445, 1412, 2502, 2535, 2534, 2501
1339, 1414, 1447, 1446, 1413, 2503, 2536, 2535, 2502
1340, 1415, 1448, 1447, 1414, 2504, 2537, 2536, 2503
1341, 1416, 1449, 1448, 1415, 2505, 2538, 2537, 2504
1342, 1417, 1450, 1449, 1416, 2506, 2539, 2538, 2505
1343, 1418, 1451, 1450, 1417, 2507, 2540, 2539, 2506
1344, 1419, 1452, 1451, 1418, 2508, 2541, 2540, 2507
1345, 1421, 1454, 1453, 1420, 2510, 2543, 2542, 2509
1346, 1422, 1455, 1454, 1421, 2511, 2544, 2543, 2510
1347, 1423, 1456, 1455, 1422, 2512, 2545, 2544, 2511
1348, 1424, 1457, 1456, 1423, 2513, 2546, 2545, 2512
1349, 1425, 1458, 1457, 1424, 2514, 2547, 2546, 2513
1350, 1426, 1459, 1458, 1425, 2515, 2548, 2547, 2514
1351, 1427, 1460, 1459, 1426, 2516, 2549, 2548, 2515
1352, 1428, 1461, 1460, 1427, 2517, 2550, 2549, 2516
1353, 1429, 1462, 1461, 1428, 2518, 2551, 2550, 2517
1354, 1430, 1463, 1462, 1429, 2519, 2552, 2551, 2518
1355, 1431, 1464, 1463, 1430, 2520, 2553, 2552, 2519
1356, 1432, 1465, 1464, 1431, 2521, 2554, 2553, 2520
1357, 1433, 1466, 1465, 1432, 2522, 2555, 2554, 2521
1358, 1434, 1467, 1466, 1433, 2523, 2556, 2555, 2522
1359, 1435, 1468, 1467, 1434, 2524, 2557, 2556, 2523
1360, 1436, 1469, 1468, 1435, 2525, 2558, 2557, 2524
1361, 1437, 1470, 1469, 1436, 2526, 2559, 2558, 2525
1362, 1438, 1471, 1470, 1437, 2527, 2560, 2559, 2526
1363, 1439, 1472, 1471, 1438, 2528, 2561, 2560, 2527
1364, 1440, 1473, 1472, 1439, 2529, 2562, 2561, 2528
1365, 1441, 1474, 1473, 1440, 2530, 2563, 2562, 2529
1366, 1442, 1475, 1474, 1441, 2531, 2564, 2563, 2530
1367, 1443, 1476, 1475, 1442, 2532, 2565, 2564, 2531
1368, 1444, 1477, 1476, 1443, 2533, 2566, 2565, 2532
1369, 1445, 1478, 1477, 1444, 2534, 2567, 2566, 2533
1370, 1446, 1479, 1478, 1445, 2535, 2568, 2567, 2534
1371, 1447, 1480, 1479, 1446, 2536, 2569, 2568, 2535
1372, 1448, 1481, 1480, 1447, 2537, 2570, 2569, 2536
1373, 1449, 1482, 1481, 1448, 2538, 2571, 2570, 2537
1374, 1450, 1483, 1482, 1449, 2539, 2572, 2571, 2538
1375, 1451, 1484, 1483, 1450, 2540, 2573, 2572, 2539
1376, 1452, 1485, 1484, 1451, 2541, 2574, 2573, 2540
1377, 1454, 1487, 1486, 1453, 2543, 2576, 2575, 2542
1378, 1455, 1488, 1487, 1454, 2544, 2577, 2576, 2543
1379, 1456, 1489, 1488, 1455, 2545, 2578, 2577, 2544
1380, 1457, 1490, 1489, 1456, 2546, 2579, 2578, 2545
1381, 1458, 1491, 1490, 1457, 2547, 2580, 2579, 2546
1382, 1459, 1492, 1491, 1458, 2548, 2581, 2580, 2547
1383, 1460, 1493, 1492, 1459, 2549, 2582, 2581, 2548
1384, 1461, 1494, 1493, 1460, 2550, 2583, 2582, 2549
1385, 1462, 1495, 1494, 1461, 2551, 2584, 2583, 2550
1386, 1463, 1496, 1495, 1462, 2552, 2585, 2584, 2551
1387, 1464, 1497, 1496, 1463, 2553, 2586, 2585, 2552
1388, 1465, 1498, 1497, 1464, 2554, 2587, 2586, 2553
1389, 1466, 1499, 1498, 1465, 2555, 2588, 2587, 2554
1390, 1467, 1500, 1499, 1466, 2556, 2589, 2588, 2555
1391, 1468, 1501, 1500, 1467, 2557, 2590, 2589, 2556
1392, 1469, 1502, 1501, 1468, 2558, 2591, 2590, 2557
1393, 1470, 1503, 1502, 1469, 2559, 2592, 2591, 2558
1394, 1471, 1504, 1503, 1470, 2560, 2593, 2592, 2559
1395, 1472, 1505, 1504, 1471, 2561, 2594, 2593, 2560
1396, 1473, 1506, 1505, 1472, 2562, 2595, 2594, 2561
1397, 1474, 1507, 1506, 1473, 2563, 2596, 2595, 2562
1398, 1475, 1508, 1507, 1474, 2564, 2597, 2596, 2563
1399, 1476, 1509, 1508, 1475, 2565, 2598, 2597, 2564
1400, 1477, 1510, 1509, 1476, 2566, 2599, 2598, 2565
1401, 1478, 1511, 1510, 1477, 2567, 2600, 2599, 2566
1402, 1479, 1512, 1511, 1478, 2568, 2601, 2600, 2567
1403, 1480, 1513, 1512, 1479, 2569, 2602, 2601, 2568
1404, 1481, 1514, 1513, 1480, 2570, 2603, 2602, 2569
1405, 1482, 1515, 1514, 1481, 2571, 2604, 2603, 2570
1406, 1483, 1516, 1515, 1482, 2572, 2605, 2604, 2571
1407, 1484, 1517, 1516, 1483, 2573, 2606, 2605, 2572
1408, 1485, 1518, 1517, 1484, 2574, 2607, 2606, 2573
1409, 1487, 1520, 1519, 1486, 2576, 2609, 2608, 2575
1410, 1488, 1521, 1520, 1487, 2577, 2610, 2609, 2576
1411, 1489, 1522, 1521, 1488, 2578, 2611, 2610, 2577
1412, 1490, 1523, 1522, 1489, 2579, 2612, 2611, 2578
1413, 1491, 1524, 1523, 1490, 2580, 2613, 2612, 2579
1414, 1492, 1525, 1524, 1491, 2581, 2614, 2613, 2580
1415, 1493, 1526, 1525, 1492, 2582, 2615, 2614, 2581
1416, 1494, 1527, 1526, 1493, 2583, 2616, 2615, 2582
1417, 1495, 1528, 1527, 1494, 2584, 2617, 2616, 2583
1418, 1496, 1529, 1528, 1495, 2585, 2618, 2617, 2584
1419, 1497, 1530, 1529, 1496, 2586, 2619, 2618, 2585
1420, 1498, 1531, 1530, 1497, 2587, 2620, 2619, 2586
1421, 1499, 1532, 1531, 1498, 2588, 2621, 2620, 2587
1422, 1500, 1533, 1532, 1499, 2589, 2622, 2621, 2588
1423, 1501, 1534, 1533, 1500, 2590, 2623, 2622, 2589
1424, 1502, 1535, 1534, 1501, 2591, 2624, 2623, 2590
1425, 1503, 1536, 1535, 1502, 2592, 2625, 2624, 2591
1426, 1504, 1537, 1536, 1503, 2593, 2626, 2625, 2592
1427, 1505, 1538, 1537, 1504, 2594, 2627, 2626, 2593
1428, 1506, 1539, 1538, 1505, 2595, 2628, 2627, 2594
1429, 1507, 1540, 1539, 1506, 2596, 2629, 2628, 2595
1430, 1508, 1541, 1540, 1507, 2597, 2630, 2629, 2596
1431, 1509, 1542, 1541, 1508, 2598, 2631, 2630, 2597
1432, 1510, 1543, 1542, 1509, 2599, 2632, 2631, 2598
1433, 1511, 1544, 1543, 1510, 2600, 2633, 2632, 2599
1434, 1512, 1545, 1544, 1511, 2601, 2634, 2633, 2600
1435, 1513, 1546, 1545, 1512, 2602, 2635, 2634, 2601
1436, 1514, 1547, 1546, 1513, 2603, 2636, 2635, 2602
1437, 1515, 1548, 1547, 1514, 2604, 2637, 2636, 2603
1438, 1516, 1549, 1548, 1515, 2605, 2638, 2637, 2604
1439, 1517, 1550, 1549, 1516, 2606, 2639, 2638, 2605
1440, 1518, 1551, 1550, 1517, 2607, 2640, 2639, 2606
1441, 1520, 1553, 1552, 1519, 2609, 2642, 2641, 2608
1442, 1521, 1554, 1553, 1520, 2610, 2643, 2642, 2609
1443, 1522, 1555, 1554, 1521, 2611, 2644, 2643, 2610
1444, 1523, 1556, 1555, 1522, 2612, 2645, 2644, 2611
1445, 1524, 1557, 1556, 1523, 2613, 2646, 2645, 2612
1446, 1525, 1558, 1557, 1524, 2614, 2647, 2646, 2613
1447, 1526, 1559, 1558, 1525, 2615, 2648, 2647, 2614
1448, 1527, 1560, 1559, 1526, 2616, 2649, 2648, 2615
1449, 1528, 1561, 1560, 1527, 2617, 2650, 2649, 2616
1450, 1529, 1562, 1561, 1528, 2618, 2651, 2650, 2617
1451, 1530, 1563, 1562, 1529, 2619, 2652, 2651, 2618
1452, 1531, 1564, 1563, 1530, 2620, 2653, 2652, 2619
1453, 1532, 1565, 1564, 1531, 2621, 2654, 2653, 2620
1454, 1533, 1566, 1565, 1532, 2622, 2655, 2654, 2621
1455, 1534, 1567, 1566, 1533, 2623, 2656, 2655, 2622
1456, 1535, 1568, 1567, 1534, 2624, 2657, 2656, 2623
1457, 1536, 1569, 1568, 1535, 2625, 2658, 2657, 2624
1458, 1537, 1570, 1569, 1536, 2626, 2659, 2658, 2625
1459, 1538, 1571, 1570, 1537, 2627, 2660, 2659, 2626
1460, 1539, 1572, 1571, 1538, 2628, 2661, 2660, 2627
1461, 1540, 1573, 1572, 1539, 2629, 2662, 2661, 2628
1462, 1541, 1574, 1573, 1540, 2630, 2663, 2662, 2629
1463, 1542, 1575, 1574, 1541, 2631, 2664, 2663, 2630
1464, 1543, 1576, 1575, 1542, 2632, 2665, 2664, 2631
1465, 1544, 1577, 1576, 1543, 2633, 2666, 2665, 2632
1466, 1545, 1578, 1577, 1544, 2634, 2667, 2666, 2633
1467, 1546, 1579, 1578, 1545, 2635, 2668, 2667, 2634
1468, 1547, 1580, 1579, 1546, 2636, 2669, 2668, 2635
1469, 1548, 1581, 1580, 1547, 2637, 2670, 2669, 2636
1470, 1549, 1582, 1581, 1548, 2638, 2671, 2670, 2637
1471, 1550, 1583, 1582, 1549, 2639, 2672, 2671, 2638
1472, 1551, 1584, 1583, 1550, 2640, 2673, 2672, 2639
1473, 1553, 1586, 1585, 1552, 2642, 2675, 2674, 2641
1474, 1554, 1587, 1586, 1553, 2643, 2676, 2675, 2642
1475, 1555, 1588, 1587, 1554, 2644, 2677, 2676, 2643
1476, 1556, 1589, 1588, 1555, 2645, 2678, 2677, 2644
1477, 1557, 1590, 1589, 1556, 2646, 2679, 2678, 2645
1478, 1558, 1591, 1590, 1557, 2647, 2680, 2679, 2646
1479, 1559, 1592, 1591, 1558, 2648, 2681, 2680, 2647
1480, 1560, 1593, 1592, 1559, 2649, 2682, 2681, 2648
1481, 1561, 1594, 1593, 1560, 2650, 2683, 2682, 2649
1482, 1562, 1595, 1594, 1561, 2651, 2684, 2683, 2650
1483, 1563, 1596, 1595, 1562, 2652, 2685, 2684, 2651
1484, 1564, 1597, 1596, 1563, 2653, 2686, 2685, 2652
1485, 1565, 1598, 1597, 1564, 2654, 2687, 2686, 2653
1486, 1566, 1599, 1598, 1565, 2655, 2688, 2687, 2654
1487, 1567, 1600, 1599, 1566, 2656, 2689, 2688, 2655
1488, 1568, 1601, 1600, 1567, 2657, 2690, 2689, 2656
1489, 1569, 1602, 1601, 1568, 2658, 2691, 2690, 2657
1490, 1570, 1603, 1602, 1569, 2659, 2692, 2691, 2658
1491, 1571, 1604, 1603, 1570, 2660, 2693, 2692, 2659
1492, 1572, 1605, 1604, 1571, 2661, 2694, 2693, 2660
1493, 1573, 1606, 1605, 1572, 2662, 2695, 2694, 2661
1494, 1574, 1607, 1606, 1573, 2663, 2696, 2695, 2662
1495, 1575, 1608, 1607, 1574, 2664, 2697, 2696, 2663
1496, 1576, 1609, 1608, 1575, 2665, 2698, 2697, 2664
1497, 1577, 1610, 1609, 1576, 2666, 2699, 2698, 2665
1498, 1578, 1611, 1610, 1577, 2667, 2700, 2699, 2666
1499, 1579, 1612, 1611, 1578, 2668, 2701, 2700, 2667
1500, 1580, 1613, 1612, 1579, 2669, 2702, 2701, 2668
1501, 1581, 1614, 1613, 1580, 2670, 2703, 2702, 2669
1502, 1582, 1615, 1614, 1581, 2671, 2704, 2703, 2670
1503, 1583, 1616, 1615, 1582, 2672, 2705, 2704, 2671
1504, 1584, 1617, 1616, 1583, 2673, 2706, 2705, 2672
1505, 1586, 1619, 1618, 1585, 2675, 2708, 2707, 2674
1506, 1587, 1620, 1619, 1586, 2676, 2709, 2708, 2675
1507, 1588, 1621, 1620, 1587, 2677, 2710, 2709, 2676
1508, 1589, 1622, 1621, 1588, 2678, 2711, 2710, 2677
1509, 1590, 1623, 1622, 1589, 2679, 2712, 2711, 2678
1510, 1591, 1624, 1623, 1590, 2680, 2713, 2712, 2679
1511, 1592, 1625, 1624, 1591, 2681, 2714, 2713, 2680
1512, 1593, 1626, 1625, 1592, 2682, 2715, 2714, 2681
1513, 1594, 1627, 1626, 1593, 2683, 2716, 2715, 2682
1514, 1595, 1628, 1627, 1594, 2684, 2717, 2716, 2683
1515, 1596, 1629, 1628, 1595, 2685, 2718, 2717, 2684
1516, 1597, 1630, 1629, 1596, 2686, 2719, 2718, 2685
1517, 1598, 1631, 1630, 1597, 2687, 2720, 2719, 2686
1518, 1599, 1632, 1631, 1598, 2688, 2721, 2720, 2687
1519, 1600, 1633, 1632, 1599, 2689, 2722, 2721, 2688
1520, 1601, 1634, 1633, 1600, 2690, 2723, 2722, 2689
1521, 1602, 1635, 1634, 1601, 2691, 2724, 2723, 2690
1522, 1603, 1636, 1635, 1602, 2692, 2725, 2724, 2691
1523, 1604, 1637, 1636, 1603, 2693, 2726, 2725, 2692
1524, 1605, 1638, 1637, 1604, 2694, 2727, 2726, 2693
1525, 1606, 1639, 1638, 1605, 2695, 2728, 2727, 2694
1526, 1607, 1640, 1639, 1606, 2696, 2729, 2728, 2695
1527, 1608, 1641, 1640, 1607, 2697, 2730, 2729, 2696
1528, 1609, 1642, 1641, 1608, 2698, 2731, 2730, 2697
1529, 1610, 1643, 1642, 1609, 2699, 2732, 2731, 2698
1530, 1611, 1644, 1643, 1610, 2700, 2733, 2732, 2699
1531, 1612, 1645, 1644, 1611, 2701, 2734, 2733, 2700
1532, 1613, 1646, 1645, 1612, 2702, 2735, 2734, 2701
1533, 1614, 1647, 1646, 1613, 2703, 2736, 2735, 2702
1534, 1615, 1648, 1647, 1614, 2704, 2737, 2736, 2703
1535, 1616, 1649, 1648, 1615, 2705, 2738, 2737, 2704
1536, 1617, 1650, 1649, 1616, 2706, 2739, 2738, 2705
1537, 1619, 1652, 1651, 1618, 2708, 2741, 2740, 2707
1538, 1620, 1653, 1652, 1619, 2709, 2742, 2741, 2708
1539, 1621, 1654, 1653, 1620, 2710, 2743, 2742, 2709
1540, 1622, 1655, 1654, 1621, 2711, 2744, 2743, 2710
1541, 1623, 1656, 1655, 1622, 2712, 2745, 2744, 2711
1542, 1624, 1657, 1656, 1623, 2713, 2746, 2745, 2712
1543, 1625, 1658, 1657, 1624, 2714, 2747, 2746, 2713
1544, 1626, 1659, 1658, 1625, 2715, 2748, 2747, 2714
1545, 1627, 1660, 1659, 1626, 2716, 2749, 2748, 2715
1546, 1628, 1661, 1660, 1627, 2717, 2750, 2749, 2716
1547, 1629, 1662, 1661, 1628, 2718, 2751, 2750, 2717
1548, 1630, 1663, 1662, 1629, 2719, 2752, 2751, 2718
1549, 1631, 1664, 1663, 1630, 2720, 2753, 2752, 2719
1550, 1632, 1665, 1664, 1631, 2721, 2754, 2753, 2720
1551, 1633, 1666, 1665, 1632, 2722, 2755, 2754, 2721
1552, 1634, 1667, 1666, 1633, 2723, 2756, 2755, 2722
1553, 1635, 1668, 1667, 1634, 2724, 2757, 2756, 2723
1554, 1636, 1669, 1668, 1635, 2725, 2758, 2757, 2724
1555, 1637, 1670, 1669, 1636, 2726, 2759, 2758, 2725
1556, 1638, 1671, 1670, 1637, 2727, 2760, 2759, 2726
1557, 1639, 1672, 1671, 1638, 2728, 2761, 2760, 2727
1558, 1640, 1673, 1672, 1639, 2729, 2762, 2761, 2728
1559, 1641, 1674, 1673, 1640, 2730, 2763, 2762, 2729
1560, 1642, 1675, 1674, 1641, 2731, 2764, 2763, 2730
1561, 1643, 1676, 1675, 1642, 2732, 2765, 2764, 2731
1562, 1644, 1677, 1676, 1643, 2733, 2766, 2765, 2732
1563, 1645, 1678, 1677, 1644, 2734, 2767, 2766, 2733
1564, 1646, 1679, 1678, 1645, 2735, 2768, 2767, 2734
1565, 1647, 1680, 1679, 1646, 2736, 2769, 2768, 2735
1566, 1648, 1681, 1680, 1647, 2737, 2770, 2769, 2736
1567, 1649, 1682, 1681, 1648, 2738, 2771, 2770, 2737
1568, 1650, 1683, 1682, 1649, 2739, 2772, 2771, 2738
1569, 1652, 1685, 1684, 1651, 2741, 2774, 2773, 2740
1570, 1653, 1686, 1685, 1652, 2742, 2775, 2774, 2741
1571, 1654, 1687, 1686, 1653, 2743, 2776, 2775, 2742
1572, 1655, 1688, 1687, 1654, 2744, 2777, 2776, 2743
1573, 1656, 1689, 1688, 1655, 2745, 2778, 2777, 2744
1574, 1657, 1690, 1689, 1656, 2746, 2779, 2778, 2745
1575, 1658, 1691, 1690, 1657, 2747, 2780, 2779, 2746
1576, 1659, 1692, 1691, 1658, 2748, 2781, 2780, 2747
1577, 1660, 1693, 1692, 1659, 2749, 2782, 2781, 2748
1578, 1661, 1694, 1693, 1660, 2750, 2783, 2782, 2749
1579, 1662, 1695, 1694, 1661, 2751, 2784, 2783, 2750
1580, 1663, 1696, 1695, 1662, 2752, 2785, 2784, 2751
1581, 1664, 1697, 1696, 1663, 2753, 2786, 2785, 2752
1582, 1665, 1698, 1697, 1664, 2754, 2787, 2786, 2753
1583, 1666, 1699, 1698, 1665, 2755, 2788, 2787, 2754
1584, 1667, 1700, 1699, 1666, 2756, 2789, 2788, 2755
1585, 1668, 1701, 1700, 1667, 2757, 2790, 2789, 2756
1586, 1669, 1702, 1701, 1668, 2758, 2791, 2790, 2757
1587, 1670, 1703, 1702, 1669, 2759, 2792, 2791, 2758
1588, 1671, 1704, 1703, 1670, 2760, 2793, 2792, 2759
1589, 1672, 1705, 1704, 1671, 2761, 2794, 2793, 2760
1590, 1673, 1706, 1705, 1672, 2762, 2795, 2794, 2761
1591, 1674, 1707, 1706, 1673, 2763, 2796, 2795, 2762
1592, 1675, 1708, 1707, 1674, 2764, 2797, 2796, 2763
1593, 1676, 1709, 1708, 1675, 2765, 2798, 2797, 2764
1594, 1677, 1710, 1709, 1676, 2766, 2799, 2798, 2765
1595, 1678, 1711, 1710, 1677, 2767, 2800, 2799, 2766
1596, 1679, 1712, 1711, 1678, 2768, 2801, 2800, 2767
1597, 1680, 1713, 1712, 1679, 2769, 2802, 2801, 2768
1598, 1681, 1714, 1713, 1680, 2770, 2803, 2802, 2769
1599, 1682, 1715, 1714, 1681, 2771, 2804, 2803, 2770
1600, 1683, 1716, 1715, 1682, 2772, 2805, 2804, 2771
1601, 1685, 1718, 1717, 1684, 2774, 2807, 2806, 2773
1602, 1686, 1719, 1718, 1685, 2775, 2808, 2807, 2774
1603, 1687, 1720, 1719, 1686, 2776, 2809, 2808, 2775
1604, 1688, 1721, 1720, 1687, 2777, 2810, 2809, 2776
1605, 1689, 1722, 1721, 1688, 2778, 2811, 2810, 2777
1606, 1690, 1723, 1722, 1689, 2779, 2812, 2811, 2778
1607, 1691, 1724, 1723, 1690, 2780, 2813, 2812, 2779
1608, 1692, 1725, 1724, 1691, 2781, 2814, 2813, 2780
1609, 1693, 1726, 1725, 1692, 2782, 2815, 2814, 2781
1610, 1694, 1727, 1726, 1693, 2783, 2816, 2815, 2782
1611, 1695, 1728, 1727, 1694, 2784, 2817, 2816, 2783
1612, 1696, 1729, 1728, 1695, 2785, 2818, 2817, 2784
1613, 1697, 1730, 1729, 1696, 2786, 2819, 2818, 2785
1614, 1698, 1731, 1730, 1697, 2787, 2820, 2819, 2786
1615, 1699, 1732, 1731, 1698, 2788, 2821, 2820, 2787
1616, 1700, 1733, 1732, 1699, 2789, 2822, 2821, 2788
1617, 1701, 1734, 1733, 1700, 2790, 2823, 2822, 2789
1618, 1702, 1735, 1734, 1701, 2791, 2824, 2823, 2790
1619, 1703, 1736, 1735, 1702, 2792, 2825, 2824, 2791
1620, 1704, 1737, 1736, 1703, 2793, 2826, 2825, 2792
1621, 1705, 1738, 1737, 1704, 2794, 2827, 2826, 2793
1622, 1706, 1739, 1738, 1705, 2795, 2828, 2827, 2794
1623, 1707, 1740, 1739, 1706, 2796, 2829, 2828, 2795
1624, 1708, 1741, 1740, 1707, 2797, 2830, 2829, 2796
1625, 1709, 1742, 1741, 1708, 2798, 2831, 2830, 2797
1626, 1710, 1743, 1742, 1709, 2799, 2832, 2831, 2798
1627, 1711, 1744, 1743, 1710, 2800, 2833, 2832, 2799
1628, 1712, 1745, 1744, 1711, 2801, 2834, 2833, 2800
1629, 1713, 1746, 1745, 1712, 2802, 2835, 2834, 2801
1630, 1714, 1747, 1746, 1713, 2803, 2836, 2835, 2802
1631, 1715, 1748, 1747, 1714, 2804, 2837, 2836, 2803
1632, 1716, 1749, 1748, 1715, 2805, 2838, 2837, 2804
1633, 1718, 1751, 1750, 1717, 2807, 2840, 2839, 2806
1634, 1719, 1752, 1751, 1718, 2808, 2841, 2840, 2807
1635, 1720, 1753, 1752, 1719, 2809, 2842, 2841, 2808
1636, 1721, 1754, 1753, 1720, 2810, 2843, 2842, 2809
1637, 1722, 1755, 1754, 1721, 2811, 2844, 2843, 2810
1638, 1723, 1756, 1755, 1722, 2812, 2845, 2844, 2811
1639, 1724, 1757, 1756, 1723, 2813, 2846, 2845, 2812
1640, 1725, 1758, 1757, 1724, 2814, 2847, 2846, 2813
1641, 1726, 1759, 1758, 1725, 2815, 2848, 2847, 2814
1642, 1727, 1760, 1759, 1726, 2816, 2849, 2848, 2815
1643, 1728, 1761, 1760, 1727, 2817, 2850, 2849, 2816
1644, 1729, 1762, 1761, 1728, 2818, 2851, 2850, 2817
1645, 1730, 1763, 1762, 1729, 2819, 2852, 2851, 2818
1646, 1731, 1764, 1763, 1730, 2820, 2853, 2852, 2819
1647, 1732, 1765, 1764, 1731, 2821, 2854, 2853, 2820
1648, 1733, 1766, 1765, 1732, 2822, 2855, 2854, 2821
1649, 1734, 1767, 1766, 1733, 2823, 2856, 2855, 2822
1650, 1735, 1768, 1767, 1734, 2824, 2857, 2856, 2823
1651, 1736, 1769, 1768, 1735, 2825, 2858, 2857, 2824
1652, 1737, 1770, 1769, 1736, 2826, 2859, 2858, 2825
1653, 1738, 1771, 1770, 1737, 2827, 2860, 2859, 2826
1654, 1739, 1772, 1771, 1738, 2828, 2861, 2860, 2827
1655, 1740, 1773, 1772, 1739, 2829, 2862, 2861, 2828
1656, 1741, 1774, 1773, 1740, 2830, 2863, 2862, 2829
1657, 1742, 1775, 1774, 1741, 2831, 2864, 2863, 2830
1658, 1743, 1776, 1775, 1742, 2832, 2865, 2864, 2831
1659, 1744, 1777, 1776, 1743, 2833, 2866, 2865, 2832
1660, 1745, 1778, 1777, 1744, 2834, 2867, 2866, 2833
1661, 1746, 1779, 1778, 1745, 2835, 2868, 2867, 2834
1662, 1747, 1780, 1779, 1746, 2836, 2869, 2868, 2835
1663, 1748, 1781, 1780, 1747, 2837, 2870, 2869, 2836
1664, 1749, 1782, 1781, 1748, 2838, 2871, 2870, 2837
1665, 1751, 1784, 1783, 1750, 2840, 2873, 2872, 2839
1666, 1752, 1785, 1784, 1751, 2841, 2874, 2873, 2840
1667, 1753, 1786, 1785, 1752, 2842, 2875, 2874, 2841
1668, 1754, 1787, 1786, 1753, 2843, 2876, 2875, 2842
1669, 1755, 1788, 1787, 1754, 2844, 2877, 2876, 2843
1670, 1756, 1789, 1788, 1755, 2845, 2878, 2877, 2844
1671, 1757, 1790, 1789, 1756, 2846, 2879, 2878, 2845
1672, 1758, 1791, 1790, 1757, 2847, 2880, 2879, 2846
1673, 1759, 1792, 1791, 1758, 2848, 2881, 2880, 2847
1674, 1760, 1793, 1792, 1759, 2849, 2882, 2881, 2848
1675, 1761, 1794, 1793, 1760, 2850, 2883, 2882, 2849
1676, 1762, 1795, 1794, 1761, 2851, 2884, 2883, 2850
1677, 1763, 1796, 1795, 1762, 2852, 2885, 2884, 2851
1678, 1764, 1797, 1796, 1763, 2853, 2886, 2885, 2852
1679, 1765, 1798, 1797, 1764, 2854, 2887, 2886, 2853
1680, 1766, 1799, 1798, 1765, 2855, 2888, 2887, 2854
1681, 1767, 1800, 1799, 1766, 2856, 2889, 2888, 2855
1682, 1768, 1801, 1800, 1767, 2857, 2890, 2889, 2856
1683, 1769, 1802, 1801, 1768, 2858, 2891, 2890, 2857
1684, 1770, 1803, 1802, 1769, 2859, 2892, 2891, 2858
1685, 1771, 1804, 1803, 1770, 2860, 2893, 2892, 2859
1686, 1772, 1805, 1804, 1771, 2861, 2894, 2893, 2860
1687, 1773, 1806, 1805, 1772, 2862, 2895, 2894, 2861
1688, 1774, 1807, 1806, 1773, 2863, 2896, 2895, 2862
1689, 1775, 1808, 1807, 1774, 2864, 2897, 2896, 2863
1690, 1776, 1809, 1808, 1775, 2865, 2898, 2897, 2864
1691, 1777, 1810, 1809, 1776, 2866, 2899, 2898, 2865
1692, 1778, 1811, 1810, 1777, 2867, 2900, 2899, 2866
1693, 1779, 1812, 1811, 1778, 2868, 2901, 2900, 2867
1694, 1780, 1813, 1812, 1779, 2869, 2902, 2901, 2868
1695, 1781, 1814, 1813, 1780, 2870, 2903, 2902, 2869
1696, 1782, 1815, 1814, 1781, 2871, 2904, 2903, 2870
1697, 1784, 1817, 1816, 1783, 2873, 2906, 2905, 2872
1698, 1785, 1818, 1817, 1784, 2874, 2907, 2906, 2873
1699, 1786, 1819, 1818, 1785, 2875, 2908, 2907, 2874
1700, 1787, 1820, 1819, 1786, 2876, 2909, 2908, 2875
1701, 1788, 1821, 1820, 1787, 2877, 2910, 2909, 2876
1702, 1789, 1822, 1821, 1788, 2878, 2911, 2910, 2877
1703, 1790, 1823, 1822, 1789, 2879, 2912, 2911, 2878
1704, 1791, 1824, 1823, 1790, 2880, 2913, 2912, 2879
1705, 1792, 1825, 1824, 1791, 2881, 2914, 2913, 2880
1706, 1793, 1826, 1825, 1792, 2882, 2915, 2914, 2881
1707, 1794, 1827, 1826, 1793, 2883, 2916, 2915, 2882
1708, 1795, 1828, 1827, 1794, 2884, 2917, 2916, 2883
1709, 1796, 1829, 1828, 1795, 2885, 2918, 2917, 2884
1710, 1797, 1830, 1829, 1796, 2886, 2919, 2918, 2885
1711, 1798, 1831, 1830, 1797, 2887, 2920, 2919, 2886
1712, 1799, 1832, 1831, 1798, 2888, 2921, 2920, 2887
1713, 1800, 1833, 1832, 1799, 2889, 2922, 2921, 2888
1714, 1801, 1834, 1833, 1800, 2890, 2923, 2922, 2889
1715, 1802, 1835, 1834, 1801, 2891, 2924, 2923, 2890
1716, 1803, 1836, 1835, 1802, 2892, 2925, 2924, 2891
1717, 1804, 1837, 1836, 1803, 2893, 2926, 2925, 2892
1718, 1805, 1838, 1837, 1804, 2894, 2927, 2926, 2893
1719, 1806, 1839, 1838, 1805, 2895, 2928, 2927, 2894
1720, 1807, 1840, 1839, 1806, 2896, 2929, 2928, 2895
1721, 1808, 1841, 1840, 1807, 2897, 2930, 2929, 2896
1722, 1809, 1842, 1841, 1808, 2898, 2931, 2930, 2897
1723, 1810, 1843, 1842, 1809, 2899, 2932, 2931, 2898
1724, 1811, 1844, 1843, 1810, 2900, 2933, 2932, 2899
1725, 1812, 1845, 1844, 1811, 2901, 2934, 2933, 2900
1726, 1813, 1846, 1845, 1812, 2902, 2935, 2934, 2901
1727, 1814, 1847, 1846, 1813, 2903, 2936, 2935, 2902
1728, 1815, 1848, 1847, 1814, 2904, 2937, 2936, 2903
1729, 1817, 1850, 1849, 1816, 2906, 2939, 2938, 2905
1730, 1818, 1851, 1850, 1817, 2907, 2940, 2939, 2906
1731, 1819, 1852, 1851, 1818, 2908, 2941, 2940, 2907
1732, 1820, 1853, 1852, 1819, 2909, 2942, 2941, 2908
1733, 1821, 1854, 1853, 1820, 2910, 2943, 2942, 2909
1734, 1822, 1855, 1854, 1821, 2911, 2944, 2943, 2910
1735, 1823, 1856, 1855, 1822, 2912, 2945, 2944, 2911
1736, 1824, 1857, 1856, 1823, 2913, 2946, 2945, 2912
1737, 1825, 1858, 1857, 1824, 2914, 2947, 2946, 2913
1738, 1826, 1859, 1858, 1825, 2915, 2948, 2947, 2914
1739, 1827, 1860, 1859, 1826, 2916, 2949, 2948, 2915
1740, 1828, 1861, 1860, 1827, 2917, 2950, 2949, 2916
1741, 1829, 1862, 1861, 1828, 2918, 2951, 2950, 2917
1742, 1830, 1863, 1862, 1829, 2919, 2952, 2951, 2918
1743, 1831, 1864, 1863, 1830, 2920, 2953, 2952, 2919
1744, 1832, 1865, 1864, 1831, 2921, 2954, 2953, 2920
1745, 1833, 1866, 1865, 1832, 2922, 2955, 2954, 2921
1746, 1834, 1867, 1866, 1833, 2923, 2956, 2955, 2922
1747, 1835, 1868, 1867, 1834, 2924, 2957, 2956, 2923
1748, 1836, 1869, 1868, 1835, 2925, 2958, 2957, 2924
1749, 1837, 1870, 1869, 1836, 2926, 2959, 2958, 2925
1750, 1838, 1871, 1870, 1837, 2927, 2960, 2959, 2926
1751, 1839, 1872, 1871, 1838, 2928, 2961, 2960, 2927
1752, 1840, 1873, 1872, 1839, 2929, 2962, 2961, 2928
1753, 1841, 1874, 1873, 1840, 2930, 2963, 2962, 2929
1754, 1842, 1875, 1874, 1841, 2931, 2964, 2963, 2930
1755, 1843, 1876, 1875, 1842, 2932, 2965, 2964, 2931
1756, 1844, 1877, 1876, 1843, 2933, 2966, 2965, 2932
1757, 1845, 1878, 1877, 1844, 2934, 2967, 2966, 2933
1758, 1846, 1879, 1878, 1845, 2935, 2968, 2967, 2934
1759, 1847, 1880, 1879, 1846, 2936, 2969, 2968, 2935
1760, 1848, 1881, 1880, 1847, 2937, 2970, 2969, 2936
1761, 1850, 1883, 1882, 1849, 2939, 2972, 2971, 2938
1762, 1851, 1884, 1883, 1850, 2940, 2973, 2972, 2939
1763, 1852, 1885, 1884, 1851, 2941, 2974, 2973, 2940
1764, 1853, 1886, 1885, 1852, 2942, 2975, 2974, 2941
1765, 1854, 1887, 1886, 1853, 2943, 2976, 2975, 2942
1766, 1855, 1888, 1887, 1854, 2944, 2977, 2976, 2943
1767, 1856, 1889, 1888, 1855, 2945, 2978, 2977, 2944
1768, 1857, 1890, 1889, 1856, 2946, 2979, 2978, 2945
1769, 1858, 1891, 1890, 1857, 2947, 2980, 2979, 2946
1770, 1859, 1892, 1891, 1858, 2948, 2981, 2980, 2947
1771, 1860, 1893, 1892, 1859, 2949, 2982, 2981, 2948
1772, 1861, 1894, 1893, 1860, 2950, 2983, 2982, 2949
1773, 1862, 1895, 1894, 1861, 2951, 2984, 2983, 2950
1774, 1863, 1896, 1895, 1862, 2952, 2985, 2984, 2951
1775, 1864, 1897, 1896, 1863, 2953, 2986, 2985, 2952
1776, 1865, 1898, 1897, 1864, 2954, 2987, 2986, 2953
1777, 1866, 1899, 1898, 1865, 2955, 2988, 2987, 2954
1778, 1867, 1900, 1899, 1866, 2956, 2989, 2988, 2955
1779, 1868, 1901, 1900, 1867, 2957, 2990, 2989, 2956
1780, 1869, 1902, 1901, 1868, 2958, 2991, 2990, 2957
1781, 1870, 1903, 1902, 1869, 2959, 2992, 2991, 2958
1782, 1871, 1904, 1903, 1870, 2960, 2993, 2992, 2959
1783, 1872, 1905, 1904, 1871, 2961, 2994, 2993, 2960
1784, 1873, 1906, 1905, 1872, 2962, 2995, 2994, 2961
1785, 1874, 1907, 1906, 1873, 2963, 2996, 2995, 2962
1786, 1875, 1908, 1907, 1874, 2964, 2997, 2996, 2963
1787, 1876, 1909, 1908, 1875, 2965, 2998, 2997, 2964
1788, 1877, 1910, 1909, 1876, 2966, 2999, 2998, 2965
1789, 1878, 1911, 1910, 1877, 2967, 3000, 2999, 2966
1790, 1879, 1912, 1911, 1878, 2968, 3001, 3000, 2967
1791, 1880, 1913, 1912, 1879, 2969, 3002, 3001, 2968
1792, 1881, 1914, 1913, 1880, 2970, 3003, 3002, 2969
1793, 1883, 1916, 1915, 1882, 2972, 3005, 3004, 2971
1794, 1884, 1917, 1916, 1883, 2973, 3006, 3005, 2972
1795, 1885, 1918, 1917, 1884, 2974, 3007, 3006, 2973
1796, 1886, 1919, 1918, 1885, 2975, 3008, 3007, 2974
1797, 1887, 1920, 1919, 1886, 2976, 3009, 3008, 2975
1798, 1888, 1921, 1920, 1887, 2977, 3010, 3009, 2976
1799, 1889, 1922, 1921, 1888, 2978, 3011, 3010, 2977
1800, 1890, 1923, 1922, 1889, 2979, 3012, 3011, 2978
1801, 1891, 1924, 1923, 1890, 2980, 3013, 3012, 2979
1802, 1892, 1925, 1924, 1891, 2981, 3014, 3013, 2980
1803, 1893, 1926, 1925, 1892, 2982, 3015, 3014, 2981
1804, 1894, 1927, 1926, 1893, 2983, 3016, 3015, 2982
1805, 1895, 1928, 1927, 1894, 2984, 3017, 3016, 2983
1806, 1896, 1929, 1928, 1895, 2985, 3018, 3017, 2984
1807, 1897, 1930, 1929, 1896, 2986, 3019, 3018, 2985
1808, 1898, 1931, 1930, 1897, 2987, 3020, 3019, 2986
1809, 1899, 1932, 1931, 1898, 2988, 3021, 3020, 2987
1810, 1900, 1933, 1932, 1899, 2989, 3022, 3021, 2988
1811, 1901, 1934, 1933, 1900, 2990, 3023, 3022, 2989
1812, 1902, 1935, 1934, 1901, 2991, 3024, 3023, 2990
1813, 1903, 1936, 1935, 1902, 2992, 3025, 3024, 2991
1814, 1904, 1937, 1936, 1903, 2993, 3026, 3025, 2992
1815, 1905, 1938, 1937, 1904, 2994, 3027, 3026, 2993
1816, 1906, 1939, 1938, 1905, 2995, 3028, 3027, 2994
1817, 1907, 1940, 1939, 1906, 2996, 3029, 3028, 2995
1818, 1908, 1941, 1940, 1907, 2997, 3030, 3029, 2996
1819, 1909, 1942, 1941, 1908, 2998, 3031, 3030, 2997
1820, 1910, 1943, 1942, 1909, 2999, 3032, 3031, 2998
1821, 1911, 1944, 1943, 1910, 3000, 3033, 3032, 2999
1822, 1912, 1945, 1944, 1911, 3001, 3034, 3033, 3000
1823, 1913, 1946, 1945, 1912, 3002, 3035, 3034, 3001
1824, 1914, 1947, 1946, 1913, 3003, 3036, 3035, 3002
1825, 1916, 1949, 1948, 1915, 3005, 3038, 3037, 3004
1826, 1917, 1950, 1949, 1916, 3006, 3039, 3038, 3005
1827, 1918, 1951, 1950, 1917, 3007, 3040, 3039, 3006
1828, 1919, 1952, 1951, 1918, 3008, 3041, 3040, 3007
1829, 1920, 1953, 1952, 1919, 3009, 3042, 3041, 3008
1830, 1921, 1954, 1953, 1920, 3010, 3043, 3042, 3009
1831, 1922, 1955, 1954, 1921, 3011, 3044, 3043, 3010
1832, 1923, 1956, 1955, 1922, 3012, 3045, 3044, 3011
1833, 1924, 1957, 1956, 1923, 3013, 3046, 3045, 3012
1834, 1925, 1958, 1957, 1924, 3014, 3047, 3046, 3013
1835, 1926, 1959, 1958, 1925, 3015, 3048, 3047, 3014
1836, 1927, 1960, 1959, 1926, 3016, 3049, 3048, 3015
1837, 1928, 1961, 1960, 1927, 3017, 3050, 3049, 3016
1838, 1929, 1962, 1961, 1928, 3018, 3051, 3050, 3017
1839, 1930, 1963, 1962, 1929, 3019, 3052, 3051, 3018
1840, 1931, 1964, 1963, 1930, 3020, 3053, 3052, 3019
1841, 1932, 1965, 1964, 1931, 3021, 3054, 3053, 3020
1842, 1933, 1966, 1965, 1932, 3022, 3055, 3054, 3021
1843, 1934, 1967, 1966, 1933, 3023, 3056, 3055, 3022
1844, 1935, 1968, 1967, 1934, 3024, 3057, 3056, 3023
1845, 1936, 1969, 1968, 1935, 3025, 3058, 3057, 3024
1846, 1937, 1970, 1969, 1936, 3026, 3059, 3058, 3025
1847, 1938, 1971, 1970, 1937, 3027, 3060, 3059, 3026
1848, 1939, 1972, 1971, 1938, 3028, 3061, 3060, 3027
1849, 1940, 1973, 1972, 1939, 3029, 3062, 3061, 3028
1850, 1941, 1974, 1973, 1940, 3030, 3063, 3062, 3029
1851, 1942, 1975, 1974, 1941, 3031, 3064, 3063, 3030
1852, 1943, 1976, 1975, 1942, 3032, 3065, 3064, 3031
1853, 1944, 1977, 1976, 1943, 3033, 3066, 3065, 3032
1854, 1945, 1978, 1977, 1944, 3034, 3067, 3066, 3033
1855, 1946, 1979, 1978, 1945, 3035, 3068, 3067, 3034
1856, 1947, 1980, 1979, 1946, 3036, 3069, 3068, 3035
1857, 1949, 1982, 1981, 1948, 3038, 3071, 3070, 3037
1858, 1950, 1983, 1982, 1949, 3039, 3072, 3071, 3038
1859, 1951, 1984, 1983, 1950, 3040, 3073, 3072, 3039
1860, 1952, 1985, 1984, 1951, 3041, 3074, 3073, 3040
1861, 1953, 1986, 1985, 1952, 3042, 3075, 3074, 3041
1862, 1954, 1987, 1986, 1953, 3043, 3076, 3075, 3042
1863, 1955, 1988, 1987, 1954, 3044, 3077, 3076, 3043
1864, 1956, 1989, 1988, 1955, 3045, 3078, 3077, 3044
1865, 1957, 1990, 1989, 1956, 3046, 3079, 3078, 3045
1866, 1958, 1991, 1990, 1957, 3047, 3080, 3079, 3046
1867, 1959, 1992, 1991, 1958, 3048, 3081, 3080, 3047
1868, 1960, 1993, 1992, 1959, 3049, 3082, 3081, 3048
1869, 1961, 1994, 1993, 1960, 3050, 3083, 3082, 3049
1870, 1962, 1995, 1994, 1961, 3051, 3084, 3083, 3050
1871, 1963, 1996, 1995, 1962, 3052, 3085, 3084, 3051
1872, 1964, 1997, 1996, 1963, 3053, 3086, 3085, 3052
1873, 1965, 1998, 1997, 1964, 3054, 3087, 3086, 3053
1874, 1966, 1999, 1998, 1965, 3055, 3088, 3087, 3054
1875, 1967, 2000, 1999, 1966, 3056, 3089, 3088, 3055
1876, 1968, 2001, 2000, 1967, 3057, 3090, 3089, 3056
1877, 1969, 2002, 2001, 1968, 3058, 3091, 3090, 3057
1878, 1970, 2003, 2002, 1969, 3059, 3092, 3091, 3058
1879, 1971, 2004, 2003, 1970, 3060, 3093, 3092, 3059
1880, 1972, 2005, 2004, 1971, 3061, 3094, 3093, 3060
1881, 1973, 2006, 2005, 1972, 3062, 3095, 3094, 3061
1882, 1974, 2007, 2006, 1973, 3063, 3096, 3095, 3062
1883, 1975, 2008, 2007, 1974, 3064, 3097, 3096, 3063
1884, 1976, 2009, 2008, 1975, 3065, 3098, 3097, 3064
1885, 1977, 2010, 2009, 1976, 3066, 3099, 3098, 3065
1886, 1978, 2011, 2010, 1977, 3067, 3100, 3099, 3066
1887, 1979, 2012, 2011, 1978, 3068, 3101, 3100, 3067
1888, 1980, 2013, 2012, 1979, 3069, 3102, 3101, 3068
1889, 1982, 2015, 2014, 1981, 3071, 3104, 3103, 3070
1890, 1983, 2016, 2015, 1982, 3072, 3105, 3104, 3071
1891, 1984, 2017, 2016, 1983, 3073, 3106, 3105, 3072
1892, 1985, 2018, 2017, 1984, 3074, 3107, 3106, 3073
1893, 1986, 2019, 2018, 1985, 3075, 3108, 3107, 3074
1894, 1987, 2020, 2019, 1986, 3076, 3109, 3108, 3075
1895, 1988, 2021, 2020, 1987, 3077, 3110, 3109, 3076
1896, 1989, 2022, 2021, 1988, 3078, 3111, 3110, 3077
1897, 1990, 2023, 2022, 1989, 3079, 3112, 3111, 3078
1898, 1991, 2024, 2023, 1990, 3080, 3113, 3112, 3079
1899, 1992, 2025, 2024, 1991, 3081, 3114, 3113, 3080
1900, 1993, 2026, 2025, 1992, 3082, 3115, 3114, 3081
1901, 1994, 2027, 2026, 1993, 3083, 3116, 3115, 3082
1902, 1995, 2028, 2027, 1994, 3084, 3117, 3116, 3083
1903, 1996, 2029, 2028, 1995, 3085, 3118, 3117, 3084
1904, 1997, 2030, 2029, 1996, 3086, 3119, 3118, 3085
1905, 1998, 2031, 2030, 1997, 3087, 3120, 3119, 3086
1906, 1999, 2032, 2031, 1998, 3088, 3121, 3120, 3087
1907, 2000, 2033, 2032, 1999, 3089, 3122, 3121, 3088
1908, 2001, 2034, 2033, 2000, 3090, 3123, 3122, 3089
1909, 2002, 2035, 2034, 2001, 3091, 3124, 3123, 3090
1910, 2003, 2036, 2035, 2002, 3092, 3125, 3124, 3091
1911, 2004, 2037, 2036, 2003, 3093, 3126, 3125, 3092
1912, 2005, 2038, 2037, 2004, 3094, 3127, 3126, 3093
1913, 2006, 2039, 2038, 2005, 3095, 3128, 3127, 3094
1914, 2007, 2040, 2039, 2006, 3096, 3129, 3128, 3095
1915, 2008, 2041, 2040, 2007, 3097, 3130, 3129, 3096
1916, 2009, 2042, 2041, 2008, 3098, 3131, 3130, 3097
1917, 2010, 2043, 2042, 2009, 3099, 3132, 3131, 3098
1918, 2011, 2044, 2043, 2010, 3100, 3133, 3132, 3099
1919, 2012, 2045, 2044, 2011, 3101, 3134, 3133, 3100
1920, 2013, 2046, 2045, 2012, 3102, 3135, 3134, 3101
1921, 2015, 2048, 2047, 2014, 3104, 3137, 3136, 3103
1922, 2016, 2049, 2048, 2015, 3105, 3138, 3137, 3104
1923, 2017, 2050, 2049, 2016, 3106, 3139, 3138, 3105
1924, 2018, 2051, 2050, 2017, 3107, 3140, 3139, 3106
1925, 2019, 2052, 2051, 2018, 3108, 3141, 3140, 3107
1926, 2020, 2053, 2052, 2019, 3109, 3142, 3141, 3108
1927, 2021, 2054, 2053, 2020, 3110, 3143, 3142, 3109
1928, 2022, 2055, 2054, 2021, 3111, 3144, 3143, 3110
1929, 2023, 2056, 2055, 2022, 3112, 3145, 3144, 3111
1930, 2024, 2057, 2056, 2023, 3113, 3146, 3145, 3112
1931, 2025, 2058, 2057, 2024, 3114, 3147, 3146, 3113
1932, 2026, 2059, 2058, 2025, 3115, 3148, 3147, 3114
1933, 2027, 2060, 2059, 2026, 3116, 3149, 3148, 3115
1934, 2028, 2061, 2060, 2027, 3117, 3150, 3149, 3116
1935, 2029, 2062, 2061, 2028, 3118, 3151, 3150, 3117
1936, 2030, 2063, 2062, 2029, 3119, 3152, 3151, 3118
1937, 2031, 2064, 2063, 2030, 3120, 3153, 3152, 3119
1938, 2032, 2065, 2064, 2031, 3121, 3154, 3153, 3120
1939, 2033, 2066, 2065, 2032, 3122, 3155, 3154, 3121
1940, 2034, 2067, 2066, 2033, 3123, 3156, 3155, 3122
1941, 2035, 2068, 2067, 2034, 3124, 3157, 3156, 3123
1942, 2036, 2069, 2068, 2035, 3125, 3158, 3157, 3124
1943, 2037, 2070, 2069, 2036, 3126, 3159, 3158, 3125
1944, 2038, 2071, 2070, 2037, 3127, 3160, 3159, 3126
1945, 2039, 2072, 2071, 2038, 3128, 3161, 3160, 3127
1946, 2040, 2073, 2072, 2039, 3129, 3162, 3161, 3128
1947, 2041, 2074, 2073, 2040, 3130, 3163, 3162, 3129
1948, 2042, 2075, 2074, 2041, 3131, 3164, 3163, 3130
1949, 2043, 2076, 2075, 2042, 3132, 3165, 3164, 3131
1950, 2044, 2077, 2076, 2043, 3133, 3166, 3165, 3132
1951, 2045, 2078, 2077, 2044, 3134, 3167, 3166, 3133
1952, 2046, 2079, 2078, 2045, 3135, 3168, 3167, 3134
1953, 2048, 2081, 2080, 2047, 3137, 3170, 3169, 3136
1954, 2049, 2082, 2081, 2048, 3138, 3171, 3170, 3137
1955, 2050, 2083, 2082, 2049, 3139, 3172, 3171, 3138
1956, 2051, 2084, 2083, 2050, 3140, 3173, 3172, 3139
1957, 2052, 2085, 2084, 2051, 3141, 3174, 3173, 3140
1958, 2053, 2086, 2085, 2052, 3142, 3175, 3174, 3141
1959, 2054, 2087, 2086, 2053, 3143, 3176, 3175, 3142
1960, 2055, 2088, 2087, 2054, 3144, 3177, 3176, 3143
1961, 2056, 2089, 2088, 2055, 3145, 3178, 3177, 3144
1962, 2057, 2090, 2089, 2056, 3146, 3179, 3178, 3145
1963, 2058, 2091, 2090, 2057, 3147, 3180, 3179, 3146
1964, 2059, 2092, 2091, 2058, 3148, 3181, 3180, 3147
1965, 2060, 2093, 2092, 2059, 3149, 3182, 3181, 3148
1966, 2061, 2094, 2093, 2060, 3150, 3183, 3182, 3149
1967, 2062, 2095, 2094, 2061, 3151, 3184, 3183, 3150
1968, 2063, 2096, 2095, 2062, 3152, 3185, 3184, 3151
1969, 2064, 2097, 2096, 2063, 3153, 3186, 3185, 3152
1970, 2065, 2098, 2097, 2064, 3154, 3187, 3186, 3153
1971, 2066, 2099, 2098, 2065, 3155, 3188, 3187, 3154
1972, 2067, 2100, 2099, 2066, 3156, 3189, 3188, 3155
1973, 2068, 2101, 2100, 2067, 3157, 3190, 3189, 3156
1974, 2069, 2102, 2101, 2068, 3158, 3191, 3190, 3157
1975, 2070, 2103, 2102, 2069, 3159, 3192, 3191, 3158
1976, 2071, 2104, 2103, 2070, 3160, 3193, 3192, 3159
1977, 2072, 2105, 2104, 2071, 3161, 3194, 3193, 3160
1978, 2073, 2106, 2105, 2072, 3162, 3195, 3194, 3161
1979, 2074, 2107, 2106, 2073, 3163, 3196, 3195, 3162
1980, 2075, 2108, 2107, 2074, 3164, 3197, 3196, 3163
1981, 2076, 2109, 2108, 2075, 3165, 3198, 3197, 3164
1982, 2077, 2110, 2109, 2076, 3166, 3199, 3198, 3165
1983, 2078, 2111, 2110, 2077, 3167, 3200, 3199, 3166
1984, 2079, 2112, 2111, 2078, 3168, 3201, 3200, 3167
1985, 2081, 2114, 2113, 2080, 3170, 3203, 3202, 3169
1986, 2082, 2115, 2114, 2081, 3171, 3204, 3203, 3170
1987, 2083, 2116, 2115, 2082, 3172, 3205, 3204, 3171
1988, 2084, 2117, 2116, 2083, 3173, 3206, 3205, 3172
1989, 2085, 2118, 2117, 2084, 3174, 3207, 3206, 3173
1990, 2086, 2119, 2118, 2085, 3175, 3208, 3207, 3174
1991, 2087, 2120, 2119, 2086, 3176, 3209, 3208, 3175
1992, 2088, 2121, 2120, 2087, 3177, 3210, 3209, 3176
1993, 2089, 2122, 2121, 2088, 3178, 3211, 3210, 3177
1994, 2090, 2123, 2122, 2089, 3179, 3212, 3211, 3178
1995, 2091, 2124, 2123, 2090, 3180, 3213, 3212, 3179
1996, 2092, 2125, 2124, 2091, 3181, 3214, 3213, 3180
1997, 2093, 2126, 2125, 2092, 3182, 3215, 3214, 3181
1998, 2094, 2127, 2126, 2093, 3183, 3216, 3215, 3182
1999, 2095, 2128, 2127, 2094, 3184, 3217, 3216, 3183
2000, 2096, 2129, 2128, 2095, 3185, 3218, 3217, 3184
2001, 2097, 2130, 2129, 2096, 3186, 3219, 3218, 3185
2002, 2098, 2131, 2130, 2097, 3187, 3220, 3219, 3186
2003, 2099, 2132, 2131, 2098, 3188, 3221, 3220, 3187
2004, 2100, 2133, 2132, 2099, 3189, 3222, 3221, 3188
2005, 2101, 2134, 2133, 2100, 3190, 3223, 3222, 3189
2006, 2102, 2135, 2134, 2101, 3191, 3224, 3223, 3190
2007, 2103, 2136, 2135, 2102, 3192, 3225, 3224, 3191
2008, 2104, 2137, 2136, 2103, 3193, 3226, 3225, 3192
2009, 2105, 2138, 2137, 2104, 3194, 3227, 3226, 3193
2010, 2106, 2139, 2138, 2105, 3195, 3228, 3227, 3194
2011, 2107, 2140, 2139, 2106, 3196, 3229, 3228, 3195
2012, 2108, 2141, 2140, 2107, 3197, 3230, 3229, 3196
2013, 2109, 2142, 2141, 2108, 3198, 3231, 3230, 3197
2014, 2110, 2143, 2142, 2109, 3199, 3232, 3231, 3198
2015, 2111, 2144, 2143, 2110, 3200, 3233, 3232, 3199
2016, 2112, 2145, 2144, 2111, 3201, 3234, 3233, 3200
2017, 2114, 2147, 2146, 2113, 3203, 3236, 3235, 3202
2018, 2115, 2148, 2147, 2114, 3204, 3237, 3236, 3203
2019, 2116, 2149, 2148, 2115, 3205, 3238, 3237, 3204
2020, 2117, 2150, 2149, 2116, 3206, 3239, 3238, 3205
2021, 2118, 2151, 2150, 2117, 3207, 3240, 3239, 3206
2022, 2119, 2152, 2151, 2118, 3208, 3241, 3240, 3207
2023, 2120, 2153, 2152, 2119, 3209, 3242, 3241, 3208
2024, 2121, 2154, 2153, 2120, 3210, 3243, 3242, 3209
2025, 2122, 2155, 2154, 2121, 3211, 3244, 3243, 3210
2026, 2123, 2156, 2155, 2122, 3212, 3245, 3244, 3211
2027, 2124, 2157, 2156, 2123, 3213, 3246, 3245, 3212
2028, 2125, 2158, 2157, 2124, 3214, 3247, 3246, 3213
2029, 2126, 2159, 2158, 2125, 3215, 3248, 3247, 3214
2030, 2127, 2160, 2159, 2126, 3216, 3249, 3248, 3215
2031, 2128, 2161, 2160, 2127, 3217, 3250, 3249, 3216
2032, 2129, 2162, 2161, 2128, 3218, 3251, 3250, 3217
2033, 2130, 2163, 2162, 2129, 3219, 3252, 3251, 3218
2034, 2131, 2164, 2163, 2130, 3220, 3253, 3252, 3219
2035, 2132, 2165, 2164, 2131, 3221, 3254, 3253, 3220
2036, 2133, 2166, 2165, 2132, 3222, 3255, 3254, 3221
2037, 2134, 2167, 2166, 2133, 3223, 3256, 3255, 3222
2038, 2135, 2168, 2167, 2134, 3224, 3257, 3256, 3223
2039, 2136, 2169, 2168, 2135, 3225, 3258, 3257, 3224
2040, 2137, 2170, 2169, 2136, 3226, 3259, 3258, 3225
2041, 2138, 2171, 2170, 2137, 3227, 3260, 3259, 3226
2042, 2139, 2172, 2171, 2138, 3228, 3261, 3260, 3227
2043, 2140, 2173, 2172, 2139, 3229, 3262, 3261, 3228
2044, 2141, 2174, 2173, 2140, 3230, 3263, 3262, 3229
2045, 2142, 2175, 2174, 2141, 3231, 3264, 3263, 3230
2046, 2143, 2176, 2175, 2142, 3232, 3265, 3264, 3231
2047, 2144, 2177, 2176, 2143, 3233, 3266, 3265, 3232
2048, 2145, 2178, 2177, 2144, 3234, 3267, 3266, 3233
2049, 2180, 2213, 2212, 2179, 3269, 3302, 3301, 3268
2050, 2181, 2214, 2213, 2180, 3270, 3303, 3302, 3269
2051, 2182, 2215, 2214, 2181, 3271, 3304, 3303, 3270
2052, 2183, 2216, 2215, 2182, 3272, 3305, 3304, 3271
2053, 2184, 2217, 2216, 2183, 3273, 3306, 3305, 3272
2054, 2185, 2218, 2217, 2184, 3274, 3307, 3306, 3273
2055, 2186, 2219, 2218, 2185, 3275, 3308, 3307, 3274
2056, 2187, 2220, 2219, 2186, 3276, 3309, 3308, 3275
2057, 2188, 2221, 2220, 2187, 3277, 3310, 3309, 3276
2058, 2189, 2222, 2221, 2188, 3278, 3311, 3310, 3277
2059, 2190, 2223, 2222, 2189, 3279, 3312, 3311, 3278
2060, 2191, 2224, 2223, 2190, 3280, 3313, 3312, 3279
2061, 2192, 2225, 2224, 2191, 3281, 3314, 3313, 3280
2062, 2193, 2226, 2225, 2192, 3282, 3315, 3314, 3281
2063, 2194, 2227, 2226, 2193, 3283, 3316, 3315, 3282
2064, 2195, 2228, 2227, 2194, 3284, 3317, 3316, 3283
2065, 2196, 2229, 2228, 2195, 3285, 3318, 3317, 3284
2066, 2197, 2230, 2229, 2196, 3286, 3319, 3318, 3285
2067, 2198, 2231, 2230, 2197, 3287, 3320, 3319, 3286
2068, 2199, 2232, 2231, 2198, 3288, 3321, 3320, 3287
2069, 2200, 2233, 2232, 2199, 3289, 3322, 3321, 3288
2070, 2201, 2234, 2233, 2200, 3290, 3323, 3322, 3289
2071, 2202, 2235, 2234, 2201, 3291, 3324, 3323, 3290
2072, 2203, 2236, 2235, 2202, 3292, 3325, 3324, 3291
2073, 2204, 2237, 2236, 2203, 3293, 3326, 3325, 3292
2074, 2205, 2238, 2237, 2204, 3294, 3327, 3326, 3293
2075, 2206, 2239, 2238, 2205, 3295, 3328, 3327, 3294
2076, 2207, 2240, 2239, 2206, 3296, 3329, 3328, 3295
2077, 2208, 2241, 2240, 2207, 3297, 3330, 3329, 3296
2078, 2209, 2242, 2241, 2208, 3298, 3331, 3330, 3297
2079, 2210, 2243, 2242, 2209, 3299, 3332, 3331, 3298
2080, 2211, 2244, 2243, 2210, 3300, 3333, 3332, 3299
2081, 2213, 2246, 2245, 2212, 3302, 3335, 3334, 3301
2082, 2214, 2247, 2246, 2213, 3303, 3336, 3335, 3302
2083, 2215, 2248, 2247, 2214, 3304, 3337, 3336, 3303
2084, 2216, 2249, 2248, 2215, 3305, 3338, 3337, 3304
2085, 2217, 2250, 2249, 2216, 3306, 3339, 3338, 3305
2086, 2218, 2251, 2250, 2217, 3307, 3340, 3339, 3306
2087, 2219, 2252, 2251, 2218, 3308, 3341, 3340, 3307
2088, 2220, 2253, 2252, 2219, 3309, 3342, 3341, 3308
2089, 2221, 2254, 2253, 2220, 3310, 3343, 3342, 3309
2090, 2222, 2255, 2254, 2221, 3311, 3344, 3343, 3310
2091, 2223, 2256, 2255, 2222, 3312, 3345, 3344, 3311
2092, 2224, 2257, 2256, 2223, 3313, 3346, 3345, 3312
2093, 2225, 2258, 2257, 2224, 3314, 3347, 3346, 3313
2094, 2226, 2259, 2258, 2225, 3315, 3348, 3347, 3314
2095, 2227, 2260, 2259, 2226, 3316, 3349, 3348, 3315
2096, 2228, 2261, 2260, 2227, 3317, 3350, 3349, 3316
2097, 2229, 2262, 2261, 2228, 3318, 3351, 3350, 3317
2098, 2230, 2263, 2262, 2229, 3319, 3352, 3351, 3318
2099, 2231, 2264, 2263, 2230, 3320, 3353, 3352, 3319
2100, 2232, 2265, 2264, 2231, 3321, 3354, 3353, 3320
2101, 2233, 2266, 2265, 2232, 3322, 3355, 3354, 3321
2102, 2234, 2267, 2266, 2233, 3323, 3356, 3355, 3322
2103, 2235, 2268, 2267, 2234, 3324, 3357, 3356, 3323
2104, 2236, 2269, 2268, 2235, 3325, 3358, 3357, 3324
2105, 2237, 2270, 2269, 2236, 3326, 3359, 3358, 3325
2106, 2238, 2271, 2270, 2237, 3327, 3360, 3359, 3326
2107, 2239, 2272, 2271, 2238, 3328, 3361, 3360, 3327
2108, 2240, 2273, 2272, 2239, 3329, 3362, 3361, 3328
2109, 2241, 2274, 2273, 2240, 3330, 3363, 3362, 3329
2110, 2242, 2275, 2274, 2241, 3331, 3364, 3363, 3330
2111, 2243, 2276, 2275, 2242, 3332, 3365, 3364, 3331
2112, 2244, 2277, 2276, 2243, 3333, 3366, 3365, 3332
2113, 2246, 2279, 2278, 2245, 3335, 3368, 3367, 3334
2114, 2247, 2280, 2279, 2246, 3336, 3369, 3368, 3335
2115, 2248, 2281, 2280, 2247, 3337, 3370, 3369, 3336
2116, 2249, 2282, 2281, 2248, 3338, 3371, 3370, 3337
2117, 2250, 2283, 2282, 2249, 3339, 3372, 3371, 3338
2118, 2251, 2284, 2283, 2250, 3340, 3373, 3372, 3339
2119, 2252, 2285, 2284, 2251, 3341, 3374, 3373, 3340
2120, 2253, 2286, 2285, 2252, 3342, 3375, 3374, 3341
2121, 2254, 2287, 2286, 2253, 3343, 3376, 3375, 3342
2122, 2255, 2288, 2287, 2254, 3344, 3377, 3376, 3343
2123, 2256, 2289, 2288, 2255, 3345, 3378, 3377, 3344
2124, 2257, 2290, 2289, 2256, 3346, 3379, 3378, 3345
2125, 2258, 2291, 2290, 2257, 3347, 3380, 3379, 3346
2126, 2259, 2292, 2291, 2258, 3348, 3381, 3380, 3347
2127, 2260, 2293, 2292, 2259, 3349, 3382, 3381, 3348
2128, 2261, 2294, 2293, 2260, 3350, 3383, 3382, 3349
2129, 2262, 2295, 2294, 2261, 3351, 3384, 3383, 3350
2130, 2263, 2296, 2295, 2262, 3352, 3385, 3384, 3351
2131, 2264, 2297, 2296, 2263, 3353, 3386, 3385, 3352
2132, 2265, 2298, 2297, 2264, 3354, 3387, 3386, 3353
2133, 2266, 2299, 2298, 2265, 3355, 3388, 3387, 3354
2134, 2267, 2300, 2299, 2266, 3356, 3389, 3388, 3355
2135, 2268, 2301, 2300, 2267, 3357, 3390, 3389, 3356
2136, 2269, 2302, 2301, 2268, 3358, 3391, 3390, 3357
2137, 2270, 2303, 2302, 2269, 3359, 3392, 3391, 3358
2138, 2271, 2304, 2303, 2270, 3360, 3393, 3392, 3359
2139, 2272, 2305, 2304, 2271, 3361, 3394, 3393, 3360
2140, 2273, 2306, 2305, 2272, 3362, 3395, 3394, 3361
2141, 2274, 2307, 2306, 2273, 3363, 3396, 3395, 3362
2142, 2275, 2308, 2307, 2274, 3364, 3397, 3396, 3363
2143, 2276, 2309, 2308, 2275, 3365, 3398, 3397, 3364
2144, 2277, 2310, 2309, 2276, 3366, 3399, 3398, 3365
2145, 2279, 2312, 2311, 2278, 3368, 3401, 3400, 3367
2146, 2280, 2313, 2312, 2279, 3369, 3402, 3401, 3368
2147, 2281, 2314, 2313, 2280, 3370, 3403, 3402, 3369
2148, 2282, 2315, 2314, 2281, 3371, 3404, 3403, 3370
2149, 2283, 2316, 2315, 2282, 3372, 3405, 3404, 3371
2150, 2284, 2317, 2316, 2283, 3373, 3406, 3405, 3372
2151, 2285, 2318, 2317, 2284, 3374, 3407, 3406, 3373
2152, 2286, 2319, 2318, 2285, 3375, 3408, 3407, 3374
2153, 2287, 2320, 2319, 2286, 3376, 3409, 3408, 3375
2154, 2288, 2321, 2320, 2287, 3377, 3410, 3409, 3376
2155, 2289, 2322, 2321, 2288, 3378, 3411, 3410, 3377
2156, 2290, 2323, 2322, 2289, 3379, 3412, 3411, 3378
2157, 2291, 2324, 2323, 2290, 3380, 3413, 3412, 3379
2158, 2292, 2325, 2324, 2291, 3381, 3414, 3413, 3380
2159, 2293, 2326, 2325, 2292, 3382, 3415, 3414, 3381
2160, 2294, 2327, 2326, 2293, 3383, 3416, 3415, 3382
2161, 2295, 2328, 2327, 2294, 3384, 3417, 3416, 3383
2162, 2296, 2329, 2328, 2295, 3385, 3418, 3417, 3384
2163, 2297, 2330, 2329, 2296, 3386, 3419, 3418, 3385
2164, 2298, 2331, 2330, 2297, 3387, 3420, 3419, 3386
2165, 2299, 2332, 2331, 2298, 3388, 3421, 3420, 3387
2166, 2300, 2333, 2332, 2299, 3389, 3422, 3421, 3388
2167, 2301, 2334, 2333, 2300, 3390, 3423, 3422, 3389
2168, 2302, 2335, 2334, 2301, 3391, 3424, 3423, 3390
2169, 2303, 2336, 2335, 2302, 3392, 3425, 3424, 3391
2170, 2304, 2337, 2336, 2303, 3393, 3426, 3425, 3392
2171, 2305, 2338, 2337, 2304, 3394, 3427, 3426, 3393
2172, 2306, 2339, 2338, 2305, 3395, 3428, 3427, 3394
2173, 2307, 2340, 2339, 2306, 3396, 3429, 3428, 3395
2174, 2308, 2341, 2340, 2307, 3397, 3430, 3429, 3396
2175, 2309, 2342, 2341, 2308, 3398, 3431, 3430, 3397
2176, 2310, 2343, 2342, 2309, 3399, 3432, 3431, 3398
2177, 2312, 2345, 2344, 2311, 3401, 3434, 3433, 3400
2178, 2313, 2346, 2345, 2312, 3402, 3435, 3434, 3401
2179, 2314, 2347, 2346, 2313, 3403, 3436, 3435, 3402
2180, 2315, 2348, 2347, 2314, 3404, 3437, 3436, 3403
2181, 2316, 2349, 2348, 2315, 3405, 3438, 3437, 3404
2182, 2317, 2350, 2349, 2316, 3406, 3439, 3438, 3405
2183, 2318, 2351, 2350, 2317, 3407, 3440, 3439, 3406
2184, 2319, 2352, 2351, 2318, 3408, 3441, 3440, 3407
2185, 2320, 2353, 2352, 2319, 3409, 3442, 3441, 3408
2186, 2321, 2354, 2353, 2320, 3410, 3443, 3442, 3409
2187, 2322, 2355, 2354, 2321, 3411, 3444, 3443, 3410
2188, 2323, 2356, 2355, 2322, 3412, 3445, 3444, 3411
2189, 2324, 2357, 2356, 2323, 3413, 3446, 3445, 3412
2190, 2325, 2358, 2357, 2324, 3414, 3447, 3446, 3413
2191, 2326, 2359, 2358, 2325, 3415, 3448, 3447, 3414
2192, 2327, 2360, 2359, 2326, 3416, 3449, 3448, 3415
2193, 2328, 2361, 2360, 2327, 3417, 3450, 3449, 3416
2194, 2329, 2362, 2361, 2328, 3418, 3451, 3450, 3417
2195, 2330, 2363, 2362, 2329, 3419, 3452, 3451, 3418
2196, 2331, 2364, 2363, 2330, 3420, 3453, 3452, 3419
2197, 2332, 2365, 2364, 2331, 3421, 3454, 3453, 3420
2198, 2333, 2366, 2365, 2332, 3422, 3455, 3454, 3421
2199, 2334, 2367, 2366, 2333, 3423, 3456, 3455, 3422
2200, 2335, 2368, 2367, 2334, 3424, 3457, 3456, 3423
2201, 2336, 2369, 2368, 2335, 3425, 3458, 3457, 3424
2202, 2337, 2370, 2369, 2336, 3426, 3459, 3458, 3425
2203, 2338, 2371, 2370, 2337, 3427, 3460, 3459, 3426
2204, 2339, 2372, 2371, 2338, 3428, 3461, 3460, 3427
2205, 2340, 2373, 2372, 2339, 3429, 3462, 3461, 3428
2206, 2341, 2374, 2373, 2340, 3430, 3463, 3462, 3429
2207, 2342, 2375, 2374, 2341, 3431, 3464, 3463, 3430
2208, 2343, 2376, 2375, 2342, 3432, 3465, 3464, 3431
2209, 2345, 2378, 2377, 2344, 3434, 3467, 3466, 3433
2210, 2346, 2379, 2378, 2345, 3435, 3468, 3467, 3434
2211, 2347, 2380, 2379, 2346, 3436, 3469, 3468, 3435
2212, 2348, 2381, 2380, 2347, 3437, 3470, 3469, 3436
2213, 2349, 2382, 2381, 2348, 3438, 3471, 3470, 3437
2214, 2350, 2383, 2382, 2349, 3439, 3472, 3471, 3438
2215, 2351, 2384, 2383, 2350, 3440, 3473, 3472, 3439
2216, 2352, 2385, 2384, 2351, 3441, 3474, 3473, 3440
2217, 2353, 2386, 2385, 2352, 3442, 3475, 3474, 3441
2218, 2354, 2387, 2386, 2353, 3443, 3476, 3475, 3442
2219, 2355, 2388, 2387, 2354, 3444, 3477, 3476, 3443
2220, 2356, 2389, 2388, 2355, 3445, 3478, 3477, 3444
2221, 2357, 2390, 2389, 2356, 3446, 3479, 3478, 3445
2222, 2358, 2391, 2390, 2357, 3447, 3480, 3479, 3446
2223, 2359, 2392, 2391, 2358, 3448, 3481, 3480, 3447
2224, 2360, 2393, 2392, 2359, 3449, 3482, 3481, 3448
2225, 2361, 2394, 2393, 2360, 3450, 3483, 3482, 3449
2226, 2362, 2395, 2394, 2361, 3451, 3484, 3483, 3450
2227, 2363, 2396, 2395, 2362, 3452, 3485, 3484, 3451
2228, 2364, 2397, 2396, 2363, 3453, 3486, 3485, 3452
2229, 2365, 2398, 2397, 2364, 3454, 3487, 3486, 3453
2230, 2366, 2399, 2398, 2365, 3455, 3488, 3487, 3454
2231, 2367, 2400, 2399, 2366, 3456, 3489, 3488, 3455
2232, 2368, 2401, 2400, 2367, 3457, 3490, 3489, 3456
2233, 2369, 2402, 2401, 2368, 3458, 3491, 3490, 3457
2234, 2370, 2403, 2402, 2369, 3459, 3492, 3491, 3458
2235, 2371, 2404, 2403, 2370, 3460, 3493, 3492, 3459
2236, 2372, 2405, 2404, 2371, 3461, 3494, 3493, 3460
2237, 2373, 2406, 2405, 2372, 3462, 3495, 3494, 3461
2238, 2374, 2407, 2406, 2373, 3463, 3496, 3495, 3462
2239, 2375, 2408, 2407, 2374, 3464, 3497, 3496, 3463
2240, 2376, 2409, 2408, 2375, 3465, 3498, 3497, 3464
2241, 2378, 2411, 2410, 2377, 3467, 3500, 3499, 3466
2242, 2379, 2412, 2411, 2378, 3468, 3501, 3500, 3467
2243, 2380, 2413, 2412, 2379, 3469, 3502, 3501, 3468
2244, 2381, 2414, 2413, 2380, 3470, 3503, 3502, 3469
2245, 2382, 2415, 2414, 2381, 3471, 3504, 3503, 3470
2246, 2383, 2416, 2415, 2382, 3472, 3505, 3504, 3471
2247, 2384, 2417, 2416, 2383, 3473, 3506, 3505, 3472
2248, 2385, 2418, 2417, 2384, 3474, 3507, 3506, 3473
2249, 2386, 2419, 2418, 2385, 3475, 3508, 3507, 3474
2250, 2387, 2420, 2419, 2386, 3476, 3509, 3508, 3475
2251, 2388, 2421, 2420, 2387, 3477, 3510, 3509, 3476
2252, 2389, 2422, 2421, 2388, 3478, 3511, 3510, 3477
2253, 2390, 2423, 2422, 2389, 3479, 3512, 3511, 3478
2254, 2391, 2424, 2423, 2390, 3480, 3513, 3512, 3479
2255, 2392, 2425, 2424, 2391, 3481, 3514, 3513, 3480
2256, 2393, 2426, 2425, 2392, 3482, 3515, 3514, 3481
2257, 2394, 2427, 2426, 2393, 3483, 3516, 3515, 3482
2258, 2395, 2428, 2427, 2394, 3484, 3517, 3516, 3483
2259, 2396, 2429, 2428, 2395, 3485, 3518, 3517, 3484
2260, 2397, 2430, 2429, 2396, 3486, 3519, 3518, 3485
2261, 2398, 2431, 2430, 2397, 3487, 3520, 3519, 3486
2262, 2399, 2432, 2431, 2398, 3488, 3521, 3520, 3487
2263, 2400, 2433, 2432, 2399, 3489, 3522, 3521, 3488
2264, 2401, 2434, 2433, 2400, 3490, 3523, 3522, 3489
2265, 2402, 2435, 2434, 2401, 3491, 3524, 3523, 3490
2266, 2403, 2436, 2435, 2402, 3492, 3525, 3524, 3491
2267, 2404, 2437, 2436, 2403, 3493, 3526, 3525, 3492
2268, 2405, 2438, 2437, 2404, 3494, 3527, 3526, 3493
2269, 2406, 2439, 2438, 2405, 3495, 3528, 3527, 3494
2270, 2407, 2440, 2439, 2406, 3496, 3529, 3528, 3495
2271, 2408, 2441, 2440, 2407, 3497, 3530, 3529, 3496
2272, 2409, 2442, 2441, 2408, 3498, 3531, 3530, 3497
2273, 2411, 2444, 2443, 2410, 3500, 3533, 3532, 3499
2274, 2412, 2445, 2444, 2411, 3501, 3534, 3533, 3500
2275, 2413, 2446, 2445, 2412, 3502, 3535, 3534, 3501
2276, 2414, 2447, 2446, 2413, 3503, 3536, 3535, 3502
2277, 2415, 2448, 2447, 2414, 3504, 3537, 3536, 3503
2278, 2416, 2449, 2448, 2415, 3505, 3538, 3537, 3504
2279, 2417, 2450, 2449, 2416, 3506, 3539, 3538, 3505
2280, 2418, 2451, 2450, 2417, 3507, 3540, 3539, 3506
2281, 2419, 2452, 2451, 2418, 3508, 3541, 3540, 3507
2282, 2420, 2453, 2452, 2419, 3509, 3542, 3541, 3508
2283, 2421, 2454, 2453, 2420, 3510, 3543, 3542, 3509
2284, 2422, 2455, 2454, 2421, 3511, 3544, 3543, 3510
2285, 2423, 2456, 2455, 2422, 3512, 3545, 3544, 3511
2286, 2424, 2457, 2456, 2423, 3513, 3546, 3545, 3512
2287, 2425, 2458, 2457, 2424, 3514, 3547, 3546, 3513
2288, 2426, 2459, 2458, 2425, 3515, 3548, 3547, 3514
2289, 2427, 2460, 2459, 2426, 3516, 3549, 3548, 3515
2290, 2428, 2461, 2460, 2427, 3517, 3550, 3549, 3516
2291, 2429, 2462, 2461, 2428, 3518, 3551, 3550, 3517
2292, 2430, 2463, 2462, 2429, 3519, 3552, 3551, 3518
2293, 2431, 2464, 2463, 2430, 3520, 3553, 3552, 3519
2294, 2432, 2465, 2464, 2431, 3521, 3554, 3553, 3520
2295, 2433, 2466, 2465, 2432, 3522, 3555, 3554, 3521
2296, 2434, 2467, 2466, 2433, 3523, 3556, 3555, 3522
2297, 2435, 2468, 2467, 2434, 3524, 3557, 3556, 3523
2298, 2436, 2469, 2468, 2435, 3525, 3558, 3557, 3524
2299, 2437, 2470, 2469, 2436, 3526, 3559, 3558, 3525
2300, 2438, 2471, 2470, 2437, 3527, 3560, 3559, 3526
2301, 2439, 2472, 2471, 2438, 3528, 3561, 3560, 3527
2302, 2440, 2473, 2472, 2439, 3529, 3562, 3561, 3528
2303, 2441, 2474, 2473, 2440, 3530, 3563, 3562, 3529
2304, 2442, 2475, 2474, 2441, 3531, 3564, 3563, 3530
2305, 2444, 2477, 2476, 2443, 3533, 3566, 3565, 3532
2306, 2445, 2478, 2477, 2444, 3534, 3567, 3566, 3533
2307, 2446, 2479, 2478, 2445, 3535, 3568, 3567, 3534
2308, 2447, 2480, 2479, 2446, 3536, 3569, 3568, 3535
2309, 2448, 2481, 2480, 2447, 3537, 3570, 3569, 3536
2310, 2449, 2482, 2481, 2448, 3538, 3571, 3570, 3537
2311, 2450, 2483, 2482, 2449, 3539, 3572, 3571, 3538
2312, 2451, 2484, 2483, 2450, 3540, 3573, 3572, 3539
2313, 2452, 2485, 2484, 2451, 3541, 3574, 3573, 3540
2314, 2453, 2486, 2485, 2452, 3542, 3575, 3574, 3541
2315, 2454, 2487, 2486, 2453, 3543, 3576, 3575, 3542
2316, 2455, 2488, 2487, 2454, 3544, 3577, 3576, 3543
2317, 2456, 2489, 2488, 2455, 3545, 3578, 3577, 3544
2318, 2457, 2490, 2489, 2456, 3546, 3579, 3578, 3545
2319, 2458, 2491, 2490, 2457, 3547, 3580, 3579, 3546
2320, 2459, 2492, 2491, 2458, 3548, 3581, 3580, 3547
2321, 2460, 2493, 2492, 2459, 3549, 3582, 3581, 3548
2322, 2461, 2494, 2493, 2460, 3550, 3583, 3582, 3549
2323, 2462, 2495, 2494, 2461, 3551, 3584, 3583, 3550
2324, 2463, 2496, 2495, 2462, 3552, 3585, 3584, 3551
2325, 2464, 2497, 2496, 2463, 3553, 3586, 3585, 3552
2326, 2465, 2498, 2497, 2464, 3554, 3587, 3586, 3553
2327, 2466, 2499, 2498, 2465, 3555, 3588, 3587, 3554
2328, 2467, 2500, 2499, 2466, 3556, 3589, 3588, 3555
2329, 2468, 2501, 2500, 2467, 3557, 3590, 3589, 3556
2330, 2469, 2502, 2501, 2468, 3558, 3591, 3590, 3557
2331, 2470, 2503, 2502, 2469, 3559, 3592, 3591, 3558
2332, 2471, 2504, 2503, 2470, 3560, 3593, 3592, 3559
2333, 2472, 2505, 2504, 2471, 3561, 3594, 3593, 3560
2334, 2473, 2506, 2505, 2472, 3562, 3595, 3594, 3561
2335, 2474, 2507, 2506, 2473, 3563, 3596, 3595, 3562
2336, 2475, 2508, 2507, 2474, 3564, 3597, 3596, 3563
2337, 2477, 2510, 2509, 2476, 3566, 3599, 3598, 3565
2338, 2478, 2511, 2510, 2477, 3567, 3600, 3599, 3566
2339, 2479, 2512, 2511, 2478, 3568, 3601, 3600, 3567
2340, 2480, 2513, 2512, 2479, 3569, 3602, 3601, 3568
2341, 2481, 2514, 2513, 2480, 3570, 3603, 3602, 3569
2342, 2482, 2515, 2514, 2481, 3571, 3604, 3603, 3570
2343, 2483, 2516, 2515, 2482, 3572, 3605, 3604, 3571
2344, 2484, 2517, 2516, 2483, 3573, 3606, 3605, 3572
2345, 2485, 2518, 2517, 2484, 3574, 3607, 3606, 3573
2346, 2486, 2519, 2518, 2485, 3575, 3608, 3607, 3574
2347, 2487, 2520, 2519, 2486, 3576, 3609, 3608, 3575
2348, 2488, 2521, 2520, 2487, 3577, 3610, 3609, 3576
2349, 2489, 2522, 2521, 2488, 3578, 3611, 3610, 3577
2350, 2490, 2523, 2522, 2489, 3579, 3612, 3611, 3578
2351, 2491, 2524, 2523, 2490, 3580, 3613, 3612, 3579
2352, 2492, 2525, 2524, 2491, 3581, 3614, 3613, 3580
2353, 2493, 2526, 2525, 2492, 3582, 3615, 3614, 3581
2354, 2494, 2527, 2526, 2493, 3583, 3616, 3615, 3582
2355, 2495, 2528, 2527, 2494, 3584, 3617, 3616, 3583
2356, 2496, 2529, 2528, 2495, 3585, 3618, 3617, 3584
2357, 2497, 2530, 2529, 2496, 3586, 3619, 3618, 3585
2358, 2498, 2531, 2530, 2497, 3587, 3620, 3619, 3586
2359, 2499, 2532, 2531, 2498, 3588, 3621, 3620, 3587
2360, 2500, 2533, 2532, 2499, 3589, 3622, 3621, 3588
2361, 2501, 2534, 2533, 2500, 3590, 3623, 3622, 3589
2362, 2502, 2535, 2534, 2501, 3591, 3624, 3623, 3590
2363, 2503, 2536, 2535, 2502, 3592, 3625, 3624, 3591
2364, 2504, 2537, 2536, 2503, 3593, 3626, 3625, 3592
2365, 2505, 2538, 2537, 2504, 3594, 3627, 3626, 3593
2366, 2506, 2539, 2538, 2505, 3595, 3628, 3627, 3594
2367, 2507, 2540, 2539, 2506, 3596, 3629, 3628, 3595
2368, 2508, 2541, 2540, 2507, 3597, 3630, 3629, 3596
2369, 2510, 2543, 2542, 2509, 3599, 3632, 3631, 3598
2370, 2511, 2544, 2543, 2510, 3600, 3633, 3632, 3599
2371, 2512, 2545, 2544, 2511, 3601, 3634, 3633, 3600
2372, 2513, 2546, 2545, 2512, 3602, 3635, 3634, 3601
2373, 2514, 2547, 2546, 2513, 3603, 3636, 3635, 3602
2374, 2515, 2548, 2547, 2514, 3604, 3637, 3636, 3603
2375, 2516, 2549, 2548, 2515, 3605, 3638, 3637, 3604
2376, 2517, 2550, 2549, 2516, 3606, 3639, 3638, 3605
2377, 2518, 2551, 2550, 2517, 3607, 3640, 3639, 3606
2378, 2519, 2552, 2551, 2518, 3608, 3641, 3640, 3607
2379, 2520, 2553, 2552, 2519, 3609, 3642, 3641, 3608
2380, 2521, 2554, 2553, 2520, 3610, 3643, 3642, 3609
2381, 2522, 2555, 2554, 2521, 3611, 3644, 3643, 3610
2382, 2523, 2556, 2555, 2522, 3612, 3645, 3644, 3611
2383, 2524, 2557, 2556, 2523, 3613, 3646, 3645, 3612
2384, 2525, 2558, 2557, 2524, 3614, 3647, 3646, 3613
2385, 2526, 2559, 2558, 2525, 3615, 3648, 3647, 3614
2386, 2527, 2560, 2559, 2526, 3616, 3649, 3648, 3615
2387, 2528, 2561, 2560, 2527, 3617, 3650, 3649, 3616
2388, 2529, 2562, 2561, 2528, 3618, 3651, 3650, 3617
2389, 2530, 2563, 2562, 2529, 3619, 3652, 3651, 3618
2390, 2531, 2564, 2563, 2530, 3620, 3653, 3652, 3619
2391, 2532, 2565, 2564, 2531, 3621, 3654, 3653, 3620
2392, 2533, 2566, 2565, 2532, 3622, 3655, 3654, 3621
2393, 2534, 2567, 2566, 2533, 3623, 3656, 3655, 3622
2394, 2535, 2568, 2567, 2534, 3624, 3657, 3656, 3623
2395, 2536, 2569, 2568, 2535, 3625, 3658, 3657, 3624
2396, 2537, 2570, 2569, 2536, 3626, 3659, 3658, 3625
2397, 2538, 2571, 2570, 2537, 3627, 3660, 3659, 3626
2398, 2539, 2572, 2571, 2538, 3628, 3661, 3660, 3627
2399, 2540, 2573, 2572, 2539, 3629, 3662, 3661, 3628
2400, 2541, 2574, 2573, 2540, 3630, 3663, 3662, 3629
2401, 2543, 2576, 2575, 2542, 3632, 3665, 3664, 3631
2402, 2544, 2577, 2576, 2543, 3633, 3666, 3665, 3632
2403, 2545, 2578, 2577, 2544, 3634, 3667, 3666, 3633
2404, 2546, 2579, 2578, 2545, 3635, 3668, 3667, 3634
2405, 2547, 2580, 2579, 2546, 3636, 3669, 3668, 3635
2406, 2548, 2581, 2580, 2547, 3637, 3670, 3669, 3636
2407, 2549, 2582, 2581, 2548, 3638, 3671, 3670, 3637
2408, 2550, 2583, 2582, 2549, 3639, 3672, 3671, 3638
2409, 2551, 2584, 2583, 2550, 3640, 3673, 3672, 3639
2410, 2552, 2585, 2584, 2551, 3641, 3674, 3673, 3640
2411, 2553, 2586, 2585, 2552, 3642, 3675, 3674, 3641
2412, 2554, 2587, 2586, 2553, 3643, 3676, 3675, 3642
2413, 2555, 2588, 2587, 2554, 3644, 3677, 3676, 3643
2414, 2556, 2589, 2588, 2555, 3645, 3678, 3677, 3644
2415, 2557, 2590, 2589, 2556, 3646, 3679, 3678, 3645
2416, 2558, 2591, 2590, 2557, 3647, 3680, 3679, 3646
2417, 2559, 2592, 2591, 2558, 3648, 3681, 3680, 3647
2418, 2560, 2593, 2592, 2559, 3649, 3682, 3681, 3648
2419, 2561, 2594, 2593, 2560, 3650, 3683, 3682, 3649
2420, 2562, 2595, 2594, 2561, 3651, 3684, 3683, 3650
2421, 2563, 2596, 2595, 2562, 3652, 3685, 3684, 3651
2422, 2564, 2597, 2596, 2563, 3653, 3686, 3685, 3652
2423, 2565, 2598, 2597, 2564, 3654, 3687, 3686, 3653
2424, 2566, 2599, 2598, 2565, 3655, 3688, 3687, 3654
2425, 2567, 2600, 2599, 2566, 3656, 3689, 3688, 3655
2426, 2568, 2601, 2600, 2567, 3657, 3690, 3689, 3656
2427, 2569, 2602, 2601, 2568, 3658, 3691, 3690, 3657
2428, 2570, 2603, 2602, 2569, 3659, 3692, 3691, 3658
2429, 2571, 2604, 2603, 2570, 3660, 3693, 3692, 3659
2430, 2572, 2605, 2604, 2571, 3661, 3694, 3693, 3660
2431, 2573, 2606, 2605, 2572, 3662, 3695, 3694, 3661
2432, 2574, 2607, 2606, 2573, 3663, 3696, 3695, 3662
2433, 2576, 2609, 2608, 2575, 3665, 3698, 3697, 3664
2434, 2577, 2610, 2609, 2576, 3666, 3699, 3698, 3665
2435, 2578, 2611, 2610, 2577, 3667, 3700, 3699, 3666
2436, 2579, 2612, 2611, 2578, 3668, 3701, 3700, 3667
2437, 2580, 2613, 2612, 2579, 3669, 3702, 3701, 3668
2438, 2581, 2614, 2613, 2580, 3670, 3703, 3702, 3669
2439, 2582, 2615, 2614, 2581, 3671, 3704, 3703, 3670
2440, 2583, 2616, 2615, 2582, 3672, 3705, 3704, 3671
2441, 2584, 2617, 2616, 2583, 3673, 3706, 3705, 3672
2442, 2585, 2618, 2617, 2584, 3674, 3707, 3706, 3673
2443, 2586, 2619, 2618, 2585, 3675, 3708, 3707, 3674
2444, 2587, 2620, 2619, 2586, 3676, 3709, 3708, 3675
2445, 2588, 2621, 2620, 2587, 3677, 3710, 3709, 3676
2446, 2589, 2622, 2621, 2588, 3678, 3711, 3710, 3677
2447, 2590, 2623, 2622, 2589, 3679, 3712, 3711, 3678
2448, 2591, 2624, 2623, 2590, 3680, 3713, 3712, 3679
2449, 2592, 2625, 2624, 2591, 3681, 3714, 3713, 3680
2450, 2593, 2626, 2625, 2592, 3682, 3715, 3714, 3681
2451, 2594, 2627, 2626, 2593, 3683, 3716, 3715, 3682
2452, 2595, 2628, 2627, 2594, 3684, 3717, 3716, 3683
2453, 2596, 2629, 2628, 2595, 3685, 3718, 3717, 3684
2454, 2597, 2630, 2629, 2596, 3686, 3719, 3718, 3685
2455, 2598, 2631, 2630, 2597, 3687, 3720, 3719, 3686
2456, 2599, 2632, 2631, 2598, 3688, 3721, 3720, 3687
2457, 2600, 2633, 2632, 2599, 3689, 3722, 3721, 3688
2458, 2601, 2634, 2633, 2600, 3690, 3723, 3722, 3689
2459, 2602, 2635, 2634, 2601, 3691, 3724, 3723, 3690
2460, 2603, 2636, 2635, 2602, 3692, 3725, 3724, 3691
2461, 2604, 2637, 2636, 2603, 3693, 3726, 3725, 3692
2462, 2605, 2638, 2637, 2604, 3694, 3727, 3726, 3693
2463, 2606, 2639, 2638, 2605, 3695, 3728, 3727, 3694
2464, 2607, 2640, 2639, 2606, 3696, 3729, 3728, 3695
2465, 2609, 2642, 2641, 2608, 3698, 3731, 3730, 3697
2466, 2610, 2643, 2642, 2609, 3699, 3732, 3731, 3698
2467, 2611, 2644, 2643, 2610, 3700, 3733, 3732, 3699
2468, 2612, 2645, 2644, 2611, 3701, 3734, 3733, 3700
2469, 2613, 2646, 2645, 2612, 3702, 3735, 3734, 3701
2470, 2614, 2647, 2646, 2613, 3703, 3736, 3735, 3702
2471, 2615, 2648, 2647, 2614, 3704, 3737, 3736, 3703
2472, 2616, 2649, 2648, 2615, 3705, 3738, 3737, 3704
2473, 2617, 2650, 2649, 2616, 3706, 3739, 3738, 3705
2474, 2618, 2651, 2650, 2617, 3707, 3740, 3739, 3706
2475, 2619, 2652, 2651, 2618, 3708, 3741, 3740, 3707
2476, 2620, 2653, 2652, 2619, 3709, 3742, 3741, 3708
2477, 2621, 2654, 2653, 2620, 3710, 3743, 3742, 3709
2478, 2622, 2655, 2654, 2621, 3711, 3744, 3743, 3710
2479, 2623, 2656, 2655, 2622, 3712, 3745, 3744, 3711
2480, 2624, 2657, 2656, 2623, 3713, 3746, 3745, 3712
2481, 2625, 2658, 2657, 2624, 3714, 3747, 3746, 3713
2482, 2626, 2659, 2658, 2625, 3715, 3748, 3747, 3714
2483, 2627, 2660, 2659, 2626, 3716, 3749, 3748, 3715
2484, 2628, 2661, 2660, 2627, 3717, 3750, 3749, 3716
2485, 2629, 2662, 2661, 2628, 3718, 3751, 3750, 3717
2486, 2630, 2663, 2662, 2629, 3719, 3752, 3751, 3718
2487, 2631, 2664, 2663, 2630, 3720, 3753, 3752, 3719
2488, 2632, 2665, 2664, 2631, 3721, 3754, 3753, 3720
2489, 2633, 2666, 2665, 2632, 3722, 3755, 3754, 3721
2490, 2634, 2667, 2666, 2633, 3723, 3756, 3755, 3722
2491, 2635, 2668, 2667, 2634, 3724, 3757, 3756, 3723
2492, 2636, 2669, 2668, 2635, 3725, 3758, 3757, 3724
2493, 2637, 2670, 2669, 2636, 3726, 3759, 3758, 3725
2494, 2638, 2671, 2670, 2637, 3727, 3760, 3759, 3726
2495, 2639, 2672, 2671, 2638, 3728, 3761, 3760, 3727
2496, 2640, 2673, 2672, 2639, 3729, 3762, 3761, 3728
2497, 2642, 2675, 2674, 2641, 3731, 3764, 3763, 3730
2498, 2643, 2676, 2675, 2642, 3732, 3765, 3764, 3731
2499, 2644, 2677, 2676, 2643, 3733, 3766, 3765, 3732
2500, 2645, 2678, 2677, 2644, 3734, 3767, 3766, 3733
2501, 2646, 2679, 2678, 2645, 3735, 3768, 3767, 3734
2502, 2647, 2680, 2679, 2646, 3736, 3769, 3768, 3735
2503, 2648, 2681, 2680, 2647, 3737, 3770, 3769, 3736
2504, 2649, 2682, 2681, 2648, 3738, 3771, 3770, 3737
2505, 2650, 2683, 2682, 2649, 3739, 3772, 3771, 3738
2506, 2651, 2684, 2683, 2650, 3740, 3773, 3772, 3739
2507, 2652, 2685, 2684, 2651, 3741, 3774, 3773, 3740
2508, 2653, 2686, 2685, 2652, 3742, 3775, 3774, 3741
2509, 2654, 2687, 2686, 2653, 3743, 3776, 3775, 3742
2510, 2655, 2688, 2687, 2654, 3744, 3777, 3776, 3743
2511, 2656, 2689, 2688, 2655, 3745, 3778, 3777, 3744
2512, 2657, 2690, 2689, 2656, 3746, 3779, 3778, 3745
2513, 2658, 2691, 2690, 2657, 3747, 3780, 3779, 3746
2514, 2659, 2692, 2691, 2658, 3748, 3781, 3780, 3747
2515, 2660, 2693, 2692, 2659, 3749, 3782, 3781, 3748
2516, 2661, 2694, 2693, 2660, 3750, 3783, 3782, 3749
2517, 2662, 2695, 2694, 2661, 3751, 3784, 3783, 3750
2518, 2663, 2696, 2695, 2662, 3752, 3785, 3784, 3751
2519, 2664, 2697, 2696, 2663, 3753, 3786, 3785, 3752
2520, 2665, 2698, 2697, 2664, 3754, 3787, 3786, 3753
2521, 2666, 2699, 2698, 2665, 3755, 3788, 3787, 3754
2522, 2667, 2700, 2699, 2666, 3756, 3789, 3788, 3755
2523, 2668, 2701, 2700, 2667, 3757, 3790, 3789, 3756
2524, 2669, 2702, 2701, 2668, 3758, 3791, 3790, 3757
2525, 2670, 2703, 2702, 2669, 3759, 3792, 3791, 3758
2526, 2671, 2704, 2703, 2670, 3760, 3793, 3792, 3759
2527, 2672, 2705, 2704, 2671, 3761, 3794, 3793, 3760
2528, 2673, 2706, 2705, 2672, 3762, 3795, 3794, 3761
2529, 2675, 2708, 2707, 2674, 3764, 3797, 3796, 3763
2530, 2676, 2709, 2708, 2675, 3765, 3798, 3797, 3764
2531, 2677, 2710, 2709, 2676, 3766, 3799, 3798, 3765
2532, 2678, 2711, 2710, 2677, 3767, 3800, 3799, 3766
2533, 2679, 2712, 2711, 2678, 3768, 3801, 3800, 3767
2534, 2680, 2713, 2712, 2679, 3769, 3802, 3801, 3768
2535, 2681, 2714, 2713, 2680, 3770, 3803, 3802, 3769
2536, 2682, 2715, 2714, 2681, 3771, 3804, 3803, 3770
2537, 2683, 2716, 2715, 2682, 3772, 3805, 3804, 3771
2538, 2684, 2717, 2716, 2683, 3773, 3806, 3805, 3772
2539, 2685, 2718, 2717, 2684, 3774, 3807, 3806, 3773
2540, 2686, 2719, 2718, 2685, 3775, 3808, 3807, 3774
2541, 2687, 2720, 2719, 2686, 3776, 3809, 3808, 3775
2542, 2688, 2721, 2720, 2687, 3777, 3810, 3809, 3776
2543, 2689, 2722, 2721, 2688, 3778, 3811, 3810, 3777
2544, 2690, 2723, 2722, 2689, 3779, 3812, 3811, 3778
2545, 2691, 2724, 2723, 2690, 3780, 3813, 3812, 3779
2546, 2692, 2725, 2724, 2691, 3781, 3814, 3813, 3780
2547, 2693, 2726, 2725, 2692, 3782, 3815, 3814, 3781
2548, 2694, 2727, 2726, 2693, 3783, 3816, 3815, 3782
2549, 2695, 2728, 2727, 2694, 3784, 3817, 3816, 3783
2550, 2696, 2729, 2728, 2695, 3785, 3818, 3817, 3784
2551, 2697, 2730, 2729, 2696, 3786, 3819, 3818, 3785
2552, 2698, 2731, 2730, 2697, 3787, 3820, 3819, 3786
2553, 2699, 2732, 2731, 2698, 3788, 3821, 3820, 3787
2554, 2700, 2733, 2732, 2699, 3789, 3822, 3821, 3788
2555, 2701, 2734, 2733, 2700, 3790, 3823, 3822, 3789
2556, 2702, 2735, 2734, 2701, 3791, 3824, 3823, 3790
2557, 2703, 2736, 2735, 2702, 3792, 3825, 3824, 3791
2558, 2704, 2737, 2736, 2703, 3793, 3826, 3825, 3792
2559, 2705, 2738, 2737, 2704, 3794, 3827, 3826, 3793
2560, 2706, 2739, 2738, 2705, 3795, 3828, 3827, 3794
2561, 2708, 2741, 2740, 2707, 3797, 3830, 3829, 3796
2562, 2709, 2742, 2741, 2708, 3798, 3831, 3830, 3797
2563, 2710, 2743, 2742, 2709, 3799, 3832, 3831, 3798
2564, 2711, 2744, 2743, 2710, 3800, 3833, 3832, 3799
2565, 2712, 2745, 2744, 2711, 3801, 3834, 3833, 3800
2566, 2713, 2746, 2745, 2712, 3802, 3835, 3834, 3801
2567, 2714, 2747, 2746, 2713, 3803, 3836, 3835, 3802
2568, 2715, 2748, 2747, 2714, 3804, 3837, 3836, 3803
2569, 2716, 2749, 2748, 2715, 3805, 3838, 3837, 3804
2570, 2717, 2750, 2749, 2716, 3806, 3839, 3838, 3805
2571, 2718, 2751, 2750, 2717, 3807, 3840, 3839, 3806
2572, 2719, 2752, 2751, 2718, 3808, 3841, 3840, 3807
2573, 2720, 2753, 2752, 2719, 3809, 3842, 3841, 3808
2574, 2721, 2754, 2753, 2720, 3810, 3843, 3842, 3809
2575, 2722, 2755, 2754, 2721, 3811, 3844, 3843, 3810
2576, 2723, 2756, 2755, 2722, 3812, 3845, 3844, 3811
2577, 2724, 2757, 2756, 2723, 3813, 3846, 3845, 3812
2578, 2725, 2758, 2757, 2724, 3814, 3847, 3846, 3813
2579, 2726, 2759, 2758, 2725, 3815, 3848, 3847, 3814
2580, 2727, 2760, 2759, 2726, 3816, 3849, 3848, 3815
2581, 2728, 2761, 2760, 2727, 3817, 3850, 3849, 3816
2582, 2729, 2762, 2761, 2728, 3818, 3851, 3850, 3817
2583, 2730, 2763, 2762, 2729, 3819, 3852, 3851, 3818
2584, 2731, 2764, 2763, 2730, 3820, 3853, 3852, 3819
2585, 2732, 2765, 2764, 2731, 3821, 3854, 3853, 3820
2586, 2733, 2766, 2765, 2732, 3822, 3855, 3854, 3821
2587, 2734, 2767, 2766, 2733, 3823, 3856, 3855, 3822
2588, 2735, 2768, 2767, 2734, 3824, 3857, 3856, 3823
2589, 2736, 2769, 2768, 2735, 3825, 3858, 3857, 3824
2590, 2737, 2770, 2769, 2736, 3826, 3859, 3858, 3825
2591, 2738, 2771, 2770, 2737, 3827, 3860, 3859, 3826
2592, 2739, 2772, 2771, 2738, 3828, 3861, 3860, 3827
2593, 2741, 2774, 2773, 2740, 3830, 3863, 3862, 3829
2594, 2742, 2775, 2774, 2741, 3831, 3864, 3863, 3830
2595, 2743, 2776, 2775, 2742, 3832, 3865, 3864, 3831
2596, 2744, 2777, 2776, 2743, 3833, 3866, 3865, 3832
2597, 2745, 2778, 2777, 2744, 3834, 3867, 3866, 3833
2598, 2746, 2779, 2778, 2745, 3835, 3868, 3867, 3834
2599, 2747, 2780, 2779, 2746, 3836, 3869, 3868, 3835
2600, 2748, 2781, 2780, 2747, 3837, 3870, 3869, 3836
2601, 2749, 2782, 2781, 2748, 3838, 3871, 3870, 3837
2602, 2750, 2783, 2782, 2749, 3839, 3872, 3871, 3838
2603, 2751, 2784, 2783, 2750, 3840, 3873, 3872, 3839
2604, 2752, 2785, 2784, 2751, 3841, 3874, 3873, 3840
2605, 2753, 2786, 2785, 2752, 3842, 3875, 3874, 3841
2606, 2754, 2787, 2786, 2753, 3843, 3876, 3875, 3842
2607, 2755, 2788, 2787, 2754, 3844, 3877, 3876, 3843
2608, 2756, 2789, 2788, 2755, 3845, 3878, 3877, 3844
2609, 2757, 2790, 2789, 2756, 3846, 3879, 3878, 3845
2610, 2758, 2791, 2790, 2757, 3847, 3880, 3879, 3846
2611, 2759, 2792, 2791, 2758, 3848, 3881, 3880, 3847
2612, 2760, 2793, 2792, 2759, 3849, 3882, 3881, 3848
2613, 2761, 2794, 2793, 2760, 3850, 3883, 3882, 3849
2614, 2762, 2795, 2794, 2761, 3851, 3884, 3883, 3850
2615, 2763, 2796, 2795, 2762, 3852, 3885, 3884, 3851
2616, 2764, 2797, 2796, 2763, 3853, 3886, 3885, 3852
2617, 2765, 2798, 2797, 2764, 3854, 3887, 3886, 3853
2618, 2766, 2799, 2798, 2765, 3855, 3888, 3887, 3854
2619, 2767, 2800, 2799, 2766, 3856, 3889, 3888, 3855
2620, 2768, 2801, 2800, 2767, 3857, 3890, 3889, 3856
2621, 2769, 2802, 2801, 2768, 3858, 3891, 3890, 3857
2622, 2770, 2803, 2802, 2769, 3859, 3892, 3891, 3858
2623, 2771, 2804, 2803, 2770, 3860, 3893, 3892, 3859
2624, 2772, 2805, 2804, 2771, 3861, 3894, 3893, 3860
2625, 2774, 2807, 2806, 2773, 3863, 3896, 3895, 3862
2626, 2775, 2808, 2807, 2774, 3864, 3897, 3896, 3863
2627, 2776, 2809, 2808, 2775, 3865, 3898, 3897, 3864
2628, 2777, 2810, 2809, 2776, 3866, 3899, 3898, 3865
2629, 2778, 2811, 2810, 2777, 3867, 3900, 3899, 3866
2630, 2779, 2812, 2811, 2778, 3868, 3901, 3900, 3867
2631, 2780, 2813, 2812, 2779, 3869, 3902, 3901, 3868
2632, 2781, 2814, 2813, 2780, 3870, 3903, 3902, 3869
2633, 2782, 2815, 2814, 2781, 3871, 3904, 3903, 3870
2634, 2783, 2816, 2815, 2782, 3872, 3905, 3904, 3871
2635, 2784, 2817, 2816, 2783, 3873, 3906, 3905, 3872
2636, 2785, 2818, 2817, 2784, 3874, 3907, 3906, 3873
2637, 2786, 2819, 2818, 2785, 3875, 3908, 3907, 3874
2638, 2787, 2820, 2819, 2786, 3876, 3909, 3908, 3875
2639, 2788, 2821, 2820, 2787, 3877, 3910, 3909, 3876
2640, 2789, 2822, 2821, 2788, 3878, 3911, 3910, 3877
2641, 2790, 2823, 2822, 2789, 3879, 3912, 3911, 3878
2642, 2791, 2824, 2823, 2790, 3880, 3913, 3912, 3879
2643, 2792, 2825, 2824, 2791, 3881, 3914, 3913, 3880
2644, 2793, 2826, 2825, 2792, 3882, 3915, 3914, 3881
2645, 2794, 2827, 2826, 2793, 3883, 3916, 3915, 3882
2646, 2795, 2828, 2827, 2794, 3884, 3917, 3916, 3883
2647, 2796, 2829, 2828, 2795, 3885, 3918, 3917, 3884
2648, 2797, 2830, 2829, 2796, 3886, 3919, 3918, 3885
2649, 2798, 2831, 2830, 2797, 3887, 3920, 3919, 3886
2650, 2799, 2832, 2831, 2798, 3888, 3921, 3920, 3887
2651, 2800, 2833, 2832, 2799, 3889, 3922, 3921, 3888
2652, 2801, 2834, 2833, 2800, 3890, 3923, 3922, 3889
2653, 2802, 2835, 2834, 2801, 3891, 3924, 3923, 3890
2654, 2803, 2836, 2835, 2802, 3892, 3925, 3924, 3891
2655, 2804, 2837, 2836, 2803, 3893, 3926, 3925, 3892
2656, 2805, 2838, 2837, 2804, 3894, 3927, 3926, 3893
2657, 2807, 2840, 2839, 2806, 3896, 3929, 3928, 3895
2658, 2808, 2841, 2840, 2807, 3897, 3930, 3929, 3896
2659, 2809, 2842, 2841, 2808, 3898, 3931, 3930, 3897
2660, 2810, 2843, 2842, 2809, 3899, 3932, 3931, 3898
2661, 2811, 2844, 2843, 2810, 3900, 3933, 3932, 3899
2662, 2812, 2845, 2844, 2811, 3901, 3934, 3933, 3900
2663, 2813, 2846, 2845, 2812, 3902, 3935, 3934, 3901
2664, 2814, 2847, 2846, 2813, 3903, 3936, 3935, 3902
2665, 2815, 2848, 2847, 2814, 3904, 3937, 3936, 3903
2666, 2816, 2849, 2848, 2815, 3905, 3938, 3937, 3904
2667, 2817, 2850, 2849, 2816, 3906, 3939, 3938, 3905
2668, 2818, 2851, 2850, 2817, 3907, 3940, 3939, 3906
2669, 2819, 2852, 2851, 2818, 3908, 3941, 3940, 3907
2670, 2820, 2853, 2852, 2819, 3909, 3942, 3941, 3908
2671, 2821, 2854, 2853, 2820, 3910, 3943, 3942, 3909
2672, 2822, 2855, 2854, 2821, 3911, 3944, 3943, 3910
2673, 2823, 2856, 2855, 2822, 3912, 3945, 3944, 3911
2674, 2824, 2857, 2856, 2823, 3913, 3946, 3945, 3912
2675, 2825, 2858, 2857, 2824, 3914, 3947, 3946, 3913
2676, 2826, 2859, 2858, 2825, 3915, 3948, 3947, 3914
2677, 2827, 2860, 2859, 2826, 3916, 3949, 3948, 3915
2678, 2828, 2861, 2860, 2827, 3917, 3950, 3949, 3916
2679, 2829, 2862, 2861, 2828, 3918, 3951, 3950, 3917
2680, 2830, 2863, 2862, 2829, 3919, 3952, 3951, 3918
2681, 2831, 2864, 2863, 2830, 3920, 3953, 3952, 3919
2682, 2832, 2865, 2864, 2831, 3921, 3954, 3953, 3920
2683, 2833, 2866, 2865, 2832, 3922, 3955, 3954, 3921
2684, 2834, 2867, 2866, 2833, 3923, 3956, 3955, 3922
2685, 2835, 2868, 2867, 2834, 3924, 3957, 3956, 3923
2686, 2836, 2869, 2868, 2835, 3925, 3958, 3957, 3924
2687, 2837, 2870, 2869, 2836, 3926, 3959, 3958, 3925
2688, 2838, 2871, 2870, 2837, 3927, 3960, 3959, 3926
2689, 2840, 2873, 2872, 2839, 3929, 3962, 3961, 3928
2690, 2841, 2874, 2873, 2840, 3930, 3963, 3962, 3929
2691, 2842, 2875, 2874, 2841, 3931, 3964, 3963, 3930
2692, 2843, 2876, 2875, 2842, 3932, 3965, 3964, 3931
2693, 2844, 2877, 2876, 2843, 3933, 3966, 3965, 3932
2694, 2845, 2878, 2877, 2844, 3934, 3967, 3966, 3933
2695, 2846, 2879, 2878, 2845, 3935, 3968, 3967, 3934
2696, 2847, 2880, 2879, 2846, 3936, 3969, 3968, 3935
2697, 2848, 2881, 2880, 2847, 3937, 3970, 3969, 3936
2698, 2849, 2882, 2881, 2848, 3938, 3971, 3970, 3937
2699, 2850, 2883, 2882, 2849, 3939, 3972, 3971, 3938
2700, 2851, 2884, 2883, 2850, 3940, 3973, 3972, 3939
2701, 2852, 2885, 2884, 2851, 3941, 3974, 3973, 3940
2702, 2853, 2886, 2885, 2852, 3942, 3975, 3974, 3941
2703, 2854, 2887, 2886, 2853, 3943, 3976, 3975, 3942
2704, 2855, 2888, 2887, 2854, 3944, 3977, 3976, 3943
2705, 2856, 2889, 2888, 2855, 3945, 3978, 3977, 3944
2706, 2857, 2890, 2889, 2856, 3946, 3979, 3978, 3945
2707, 2858, 2891, 2890, 2857, 3947, 3980, 3979, 3946
2708, 2859, 2892, 2891, 2858, 3948, 3981, 3980, 3947
2709, 2860, 2893, 2892, 2859, 3949, 3982, 3981, 3948
2710, 2861, 2894, 2893, 2860, 3950, 3983, 3982, 3949
2711, 2862, 2895, 2894, 2861, 3951, 3984, 3983, 3950
2712, 2863, 2896, 2895, 2862, 3952, 3985, 3984, 3951
2713, 2864, 2897, 2896, 2863, 3953, 3986, 3985, 3952
2714, 2865, 2898, 2897, 2864, 3954, 3987, 3986, 3953
2715, 2866, 2899, 2898, 2865, 3955, 3988, 3987, 3954
2716, 2867, 2900, 2899, 2866, 3956, 3989, 3988, 3955
2717, 2868, 2901, 2900, 2867, 3957, 3990, 3989, 3956
2718, 2869, 2902, 2901, 2868, 3958, 3991, 3990, 3957
2719, 2870, 2903, 2902, 2869, 3959, 3992, 3991, 3958
2720, 2871, 2904, 2903, 2870, 3960, 3993, 3992, 3959
2721, 2873, 2906, 2905, 2872, 3962, 3995, 3994, 3961
2722, 2874, 2907, 2906, 2873, 3963, 3996, 3995, 3962
2723, 2875, 2908, 2907, 2874, 3964, 3997, 3996, 3963
2724, 2876, 2909, 2908, 2875, 3965, 3998, 3997, 3964
2725, 2877, 2910, 2909, 2876, 3966, 3999, 3998, 3965
2726, 2878, 2911, 2910, 2877, 3967, 4000, 3999, 3966
2727, 2879, 2912, 2911, 2878, 3968, 4001, 4000, 3967
2728, 2880, 2913, 2912, 2879, 3969, 4002, 4001, 3968
2729, 2881, 2914, 2913, 2880, 3970, 4003, 4002, 3969
2730, 2882, 2915, 2914, 2881, 3971, 4004, 4003, 3970
2731, 2883, 2916, 2915, 2882, 3972, 4005, 4004, 3971
2732, 2884, 2917, 2916, 2883, 3973, 4006, 4005, 3972
2733, 2885, 2918, 2917, 2884, 3974, 4007, 4006, 3973
2734, 2886, 2919, 2918, 2885, 3975, 4008, 4007, 3974
2735, 2887, 2920, 2919, 2886, 3976, 4009, 4008, 3975
2736, 2888, 2921, 2920, 2887, 3977, 4010, 4009, 3976
2737, 2889, 2922, 2921, 2888, 3978, 4011, 4010, 3977
2738, 2890, 2923, 2922, 2889, 3979, 4012, 4011, 3978
2739, 2891, 2924, 2923, 2890, 3980, 4013, 4012, 3979
2740, 2892, 2925, 2924, 2891, 3981, 4014, 4013, 3980
2741, 2893, 2926, 2925, 2892, 3982, 4015, 4014, 3981
2742, 2894, 2927, 2926, 2893, 3983, 4016, 4015, 3982
2743, 2895, 2928, 2927, 2894, 3984, 4017, 4016, 3983
2744, 2896, 2929, 2928, 2895, 3985, 4018, 4017, 3984
2745, 2897, 2930, 2929, 2896, 3986, 4019, 4018, 3985
2746, 2898, 2931, 2930, 2897, 3987, 4020, 4019, 3986
2747, 2899, 2932, 2931, 2898, 3988, 4021, 4020, 3987
2748, 2900, 2933, 2932, 2899, 3989, 4022, 4021, 3988
2749, 2901, 2934, 2933, 2900, 3990, 4023, 4022, 3989
2750, 2902, 2935, 2934, 2901, 3991, 4024, 4023, 3990
2751, 2903, 2936, 2935, 2902, 3992, 4025, 4024, 3991
2752, 2904, 2937, 2936, 2903, 3993, 4026, 4025, 3992
2753, 2906, 2939, 2938, 2905, 3995, 4028, 4027, 3994
2754, 2907, 2940, 2939, 2906, 3996, 4029, 4028, 3995
2755, 2908, 2941, 2940, 2907, 3997, 4030, 4029, 3996
2756, 2909, 2942, 2941, 2908, 3998, 4031, 4030, 3997
2757, 2910, 2943, 2942, 2909, 3999, 4032, 4031, 3998
2758, 2911, 2944, 2943, 2910, 4000, 4033, 4032, 3999
2759, 2912, 2945, 2944, 2911, 4001, 4034, 4033, 4000
2760, 2913, 2946, 2945, 2912, 4002, 4035, 4034, 4001
2761, 2914, 2947, 2946, 2913, 4003, 4036, 4035, 4002
2762, 2915, 2948, 2947, 2914, 4004, 4037, 4036, 4003
2763, 2916, 2949, 2948, 2915, 4005, 4038, 4037, 4004
2764, 2917, 2950, 2949, 2916, 4006, 4039, 4038, 4005
2765, 2918, 2951, 2950, 2917, 4007, 4040, 4039, 4006
2766, 2919, 2952, 2951, 2918, 4008, 4041, 4040, 4007
2767, 2920, 2953, 2952, 2919, 4009, 4042, 4041, 4008
2768, 2921, 2954, 2953, 2920, 4010, 4043, 4042, 4009
2769, 2922, 2955, 2954, 2921, 4011, 4044, 4043, 4010
2770, 2923, 2956, 2955, 2922, 4012, 4045, 4044, 4011
2771, 2924, 2957, 2956, 2923, 4013, 4046, 4045, 4012
2772, 2925, 2958, 2957, 2924, 4014, 4047, 4046, 4013
2773, 2926, 2959, 2958, 2925, 4015, 4048, 4047, 4014
2774, 2927, 2960, 2959, 2926, 4016, 4049, 4048, 4015
2775, 2928, 2961, 2960, 2927, 4017, 4050, 4049, 4016
2776, 2929, 2962, 2961, 2928, 4018, 4051, 4050, 4017
2777, 2930, 2963, 2962, 2929, 4019, 4052, 4051, 4018
2778, 2931, 2964, 2963, 2930, 4020, 4053, 4052, 4019
2779, 2932, 2965, 2964, 2931, 4021, 4054, 4053, 4020
2780, 2933, 2966, 2965, 2932, 4022, 4055, 4054, 4021
2781, 2934, 2967, 2966, 2933, 4023, 4056, 4055, 4022
2782, 2935, 2968, 2967, 2934, 4024, 4057, 4056, 4023
2783, 2936, 2969, 2968, 2935, 4025, 4058, 4057, 4024
2784, 2937, 2970, 2969, 2936, 4026, 4059, 4058, 4025
2785, 2939, 2972, 2971, 2938, 4028, 4061, 4060, 4027
2786, 2940, 2973, 2972, 2939, 4029, 4062, 4061, 4028
2787, 2941, 2974, 2973, 2940, 4030, 4063, 4062, 4029
2788, 2942, 2975, 2974, 2941, 4031, 4064, 4063, 4030
2789, 2943, 2976, 2975, 2942, 4032, 4065, 4064, 4031
2790, 2944, 2977, 2976, 2943, 4033, 4066, 4065, 4032
2791, 2945, 2978, 2977, 2944, 4034, 4067, 4066, 4033
2792, 2946, 2979, 2978, 2945, 4035, 4068, 4067, 4034
2793, 2947, 2980, 2979, 2946, 4036, 4069, 4068, 4035
2794, 2948, 2981, 2980, 2947, 4037, 4070, 4069, 4036
2795, 2949, 2982, 2981, 2948, 4038, 4071, 4070, 4037
2796, 2950, 2983, 2982, 2949, 4039, 4072, 4071, 4038
2797, 2951, 2984, 2983, 2950, 4040, 4073, 4072, 4039
2798, 2952, 2985, 2984, 2951, 4041, 4074, 4073, 4040
2799, 2953, 2986, 2985, 2952, 4042, 4075, 4074, 4041
2800, 2954, 2987, 2986, 2953, 4043, 4076, 4075, 4042
2801, 2955, 2988, 2987, 2954, 4044, 4077, 4076, 4043
2802, 2956, 2989, 2988, 2955, 4045, 4078, 4077, 4044
2803, 2957, 2990, 2989, 2956, 4046, 4079, 4078, 4045
2804, 2958, 2991, 2990, 2957, 4047, 4080, 4079, 4046
2805, 2959, 2992, 2991, 2958, 4048, 4081, 4080, 4047
2806, 2960, 2993, 2992, 2959, 4049, 4082, 4081, 4048
2807, 2961, 2994, 2993, 2960, 4050, 4083, 4082, 4049
2808, 2962, 2995, 2994, 2961, 4051, 4084, 4083, 4050
2809, 2963, 2996, 2995, 2962, 4052, 4085, 4084, 4051
2810, 2964, 2997, 2996, 2963, 4053, 4086, 4085, 4052
2811, 2965, 2998, 2997, 2964, 4054, 4087, 4086, 4053
2812, 2966, 2999, 2998, 2965, 4055, 4088, 4087, 4054
2813, 2967, 3000, 2999, 2966, 4056, 4089, 4088, 4055
2814, 2968, 3001, 3000, 2967, 4057, 4090, 4089, 4056
2815, 2969, 3002, 3001, 2968, 4058, 4091, 4090, 4057
2816, 2970, 3003, 3002, 2969, 4059, 4092, 4091, 4058
2817, 2972, 3005, 3004, 2971, 4061, 4094, 4093, 4060
2818, 2973, 3006, 3005, 2972, 4062, 4095, 4094, 4061
2819, 2974, 3007, 3006, 2973, 4063, 4096, 4095, 4062
2820, 2975, 3008, 3007, 2974, 4064, 4097, 4096, 4063
2821, 2976, 3009, 3008, 2975, 4065, 4098, 4097, 4064
2822, 2977, 3010, 3009, 2976, 4066, 4099, 4098, 4065
2823, 2978, 3011, 3010, 2977, 4067, 4100, 4099, 4066
2824, 2979, 3012, 3011, 2978, 4068, 4101, 4100, 4067
2825, 2980, 3013, 3012, 2979, 4069, 4102, 4101, 4068
2826, 2981, 3014, 3013, 2980, 4070, 4103, 4102, 4069
2827, 2982, 3015, 3014, 2981, 4071, 4104, 4103, 4070
2828, 2983, 3016, 3015, 2982, 4072, 4105, 4104, 4071
2829, 2984, 3017, 3016, 2983, 4073, 4106, 4105, 4072
2830, 2985, 3018, 3017, 2984, 4074, 4107, 4106, 4073
2831, 2986, 3019, 3018, 2985, 4075, 4108, 4107, 4074
2832, 2987, 3020, 3019, 2986, 4076, 4109, 4108, 4075
2833, 2988, 3021, 3020, 2987, 4077, 4110, 4109, 4076
2834, 2989, 3022, 3021, 2988, 4078, 4111, 4110, 4077
2835, 2990, 3023, 3022, 2989, 4079, 4112, 4111, 4078
2836, 2991, 3024, 3023, 2990, 4080, 4113, 4112, 4079
2837, 2992, 3025, 3024, 2991, 4081, 4114, 4113, 4080
2838, 2993, 3026, 3025, 2992, 4082, 4115, 4114, 4081
2839, 2994, 3027, 3026, 2993, 4083, 4116, 4115, 4082
2840, 2995, 3028, 3027, 2994, 4084, 4117, 4116, 4083
2841, 2996, 3029, 3028, 2995, 4085, 4118, 4117, 4084
2842, 2997, 3030, 3029, 2996, 4086, 4119, 4118, 4085
2843, 2998, 3031, 3030, 2997, 4087, 4120, 4119, 4086
2844, 2999, 3032, 3031, 2998, 4088, 4121, 4120, 4087
2845, 3000, 3033, 3032, 2999, 4089, 4122, 4121, 4088
2846, 3001, 3034, 3033, 3000, 4090, 4123, 4122, 4089
2847, 3002, 3035, 3034, 3001, 4091, 4124, 4123, 4090
2848, 3003, 3036, 3035, 3002, 4092, 4125, 4124, 4091
2849, 3005, 3038, 3037, 3004, 4094, 4127, 4126, 4093
2850, 3006, 3039, 3038, 3005, 4095, 4128, 4127, 4094
2851, 3007, 3040, 3039, 3006, 4096, 4129, 4128, 4095
2852, 3008, 3041, 3040, 3007, 4097, 4130, 4129, 4096
2853, 3009, 3042, 3041, 3008, 4098, 4131, 4130, 4097
2854, 3010, 3043, 3042, 3009, 4099, 4132, 4131, 4098
2855, 3011, 3044, 3043, 3010, 4100, 4133, 4132, 4099
2856, 3012, 3045, 3044, 3011, 4101, 4134, 4133, 4100
2857, 3013, 3046, 3045, 3012, 4102, 4135, 4134, 4101
2858, 3014, 3047, 3046, 3013, 4103, 4136, 4135, 4102
2859, 3015, 3048, 3047, 3014, 4104, 4137, 4136, 4103
2860, 3016, 3049, 3048, 3015, 4105, 4138, 4137, 4104
2861, 3017, 3050, 3049, 3016, 4106, 4139, 4138, 4105
2862, 3018, 3051, 3050, 3017, 4107, 4140, 4139, 4106
2863, 3019, 3052, 3051, 3018, 4108, 4141, 4140, 4107
2864, 3020, 3053, 3052, 3019, 4109, 4142, 4141, 4108
2865, 3021, 3054, 3053, 3020, 4110, 4143, 4142, 4109
2866, 3022, 3055, 3054, 3021, 4111, 4144, 4143, 4110
2867, 3023, 3056, 3055, 3022, 4112, 4145, 4144, 4111
2868, 3024, 3057, 3056, 3023, 4113, 4146, 4145, 4112
2869, 3025, 3058, 3057, 3024, 4114, 4147, 4146, 4113
2870, 3026, 3059, 3058, 3025, 4115, 4148, 4147, 4114
2871, 3027, 3060, 3059, 3026, 4116, 4149, 4148, 4115
2872, 3028, 3061, 3060, 3027, 4117, 4150, 4149, 4116
2873, 3029, 3062, 3061, 3028, 4118, 4151, 4150, 4117
2874, 3030, 3063, 3062, 3029, 4119, 4152, 4151, 4118
2875, 3031, 3064, 3063, 3030, 4120, 4153, 4152, 4119
2876, 3032, 3065, 3064, 3031, 4121, 4154, 4153, 4120
2877, 3033, 3066, 3065, 3032, 4122, 4155, 4154, 4121
2878, 3034, 3067, 3066, 3033, 4123, 4156, 4155, 4122
2879, 3035, 3068, 3067, 3034, 4124, 4157, 4156, 4123
2880, 3036, 3069, 3068, 3035, 4125, 4158, 4157, 4124
2881, 3038, 3071, 3070, 3037, 4127, 4160, 4159, 4126
2882, 3039, 3072, 3071, 3038, 4128, 4161, 4160, 4127
2883, 3040, 3073, 3072, 3039, 4129, 4162, 4161, 4128
2884, 3041, 3074, 3073, 3040, 4130, 4163, 4162, 4129
2885, 3042, 3075, 3074, 3041, 4131, 4164, 4163, 4130
2886, 3043, 3076, 3075, 3042, 4132, 4165, 4164, 4131
2887, 3044, 3077, 3076, 3043, 4133, 4166, 4165, 4132
2888, 3045, 3078, 3077, 3044, 4134, 4167, 4166, 4133
2889, 3046, 3079, 3078, 3045, 4135, 4168, 4167, 4134
2890, 3047, 3080, 3079, 3046, 4136, 4169, 4168, 4135
2891, 3048, 3081, 3080, 3047, 4137, 4170, 4169, 4136
2892, 3049, 3082, 3081, 3048, 4138, 4171, 4170, 4137
2893, 3050, 3083, 3082, 3049, 4139, 4172, 4171, 4138
2894, 3051, 3084, 3083, 3050, 4140, 4173, 4172, 4139
2895, 3052, 3085, 3084, 3051, 4141, 4174, 4173, 4140
2896, 3053, 3086, 3085, 3052, 4142, 4175, 4174, 4141
2897, 3054, 3087, 3086, 3053, 4143, 4176, 4175, 4142
2898, 3055, 3088, 3087, 3054, 4144, 4177, 4176, 4143
2899, 3056, 3089, 3088, 3055, 4145, 4178, 4177, 4144
2900, 3057, 3090, 3089, 3056, 4146, 4179, 4178, 4145
2901, 3058, 3091, 3090, 3057, 4147, 4180, 4179, 4146
2902, 3059, 3092, 3091, 3058, 4148, 4181, 4180, 4147
2903, 3060, 3093, 3092, 3059, 4149, 4182, 4181, 4148
2904, 3061, 3094, 3093, 3060, 4150, 4183, 4182, 4149
2905, 3062, 3095, 3094, 3061, 4151, 4184, 4183, 4150
2906, 3063, 3096, 3095, 3062, 4152, 4185, 4184, 4151
2907, 3064, 3097, 3096, 3063, 4153, 4186, 4185, 4152
2908, 3065, 3098, 3097, 3064, 4154, 4187, 4186, 4153
2909, 3066, 3099, 3098, 3065, 4155, 4188, 4187, 4154
2910, 3067, 3100, 3099, 3066, 4156, 4189, 4188, 4155
2911, 3068, 3101, 3100, 3067, 4157, 4190, 4189, 4156
2912, 3069, 3102, 3101, 3068, 4158, 4191, 4190, 4157
2913, 3071, 3104, 3103, 3070, 4160, 4193, 4192, 4159
2914, 3072, 3105, 3104, 3071, 4161, 4194, 4193, 4160
2915, 3073, 3106, 3105, 3072, 4162, 4195, 4194, 4161
2916, 3074, 3107, 3106, 3073, 4163, 4196, 4195, 4162
2917, 3075, 3108, 3107, 3074, 4164, 4197, 4196, 4163
2918, 3076, 3109, 3108, 3075, 4165, 4198, 4197, 4164
2919, 3077, 3110, 3109, 3076, 4166, 4199, 4198, 4165
2920, 3078, 3111, 3110, 3077, 4167, 4200, 4199, 4166
2921, 3079, 3112, 3111, 3078, 4168, 4201, 4200, 4167
2922, 3080, 3113, 3112, 3079, 4169, 4202, 4201, 4168
2923, 3081, 3114, 3113, 3080, 4170, 4203, 4202, 4169
2924, 3082, 3115, 3114, 3081, 4171, 4204, 4203, 4170
2925, 3083, 3116, 3115, 3082, 4172, 4205, 4204, 4171
2926, 3084, 3117, 3116, 3083, 4173, 4206, 4205, 4172
2927, 3085, 3118, 3117, 3084, 4174, 4207, 4206, 4173
2928, 3086, 3119, 3118, 3085, 4175, 4208, 4207, 4174
2929, 3087, 3120, 3119, 3086, 4176, 4209, 4208, 4175
2930, 3088, 3121, 3120, 3087, 4177, 4210, 4209, 4176
2931, 3089, 3122, 3121, 3088, 4178, 4211, 4210, 4177
2932, 3090, 3123, 3122, 3089, 4179, 4212, 4211, 4178
2933, 3091, 3124, 3123, 3090, 4180, 4213, 4212, 4179
2934, 3092, 3125, 3124, 3091, 4181, 4214, 4213, 4180
2935, 3093, 3126, 3125, 3092, 4182, 4215, 4214, 4181
2936, 3094, 3127, 3126, 3093, 4183, 4216, 4215, 4182
2937, 3095, 3128, 3127, 3094, 4184, 4217, 4216, 4183
2938, 3096, 3129, 3128, 3095, 4185, 4218, 4217, 4184
2939, 3097, 3130, 3129, 3096, 4186, 4219, 4218, 4185
2940, 3098, 3131, 3130, 3097, 4187, 4220, 4219, 4186
2941, 3099, 3132, 3131, 3098, 4188, 4221, 4220, 4187
2942, 3100, 3133, 3132, 3099, 4189, 4222, 4221, 4188
2943, 3101, 3134, 3133, 3100, 4190, 4223, 4222, 4189
2944, 3102, 3135, 3134, 3101, 4191, 4224, 4223, 4190
2945, 3104, 3137, 3136, 3103, 4193, 4226, 4225, 4192
2946, 3105, 3138, 3137, 3104, 4194, 4227, 4226, 4193
2947, 3106, 3139, 3138, 3105, 4195, 4228, 4227, 4194
2948, 3107, 3140, 3139, 3106, 4196, 4229, 4228, 4195
2949, 3108, 3141, 3140, 3107, 4197, 4230, 4229, 4196
2950, 3109, 3142, 3141, 3108, 4198, 4231, 4230, 4197
2951, 3110, 3143, 3142, 3109, 4199, 4232, 4231, 4198
2952, 3111, 3144, 3143, 3110, 4200, 4233, 4232, 4199
2953, 3112, 3145, 3144, 3111, 4201, 4234, 4233, 4200
2954, 3113, 3146, 3145, 3112, 4202, 4235, 4234, 4201
2955, 3114, 3147, 3146, 3113, 4203, 4236, 4235, 4202
2956, 3115, 3148, 3147, 3114, 4204, 4237, 4236, 4203
2957, 3116, 3149, 3148, 3115, 4205, 4238, 4237, 4204
2958, 3117, 3150, 3149, 3116, 4206, 4239, 4238, 4205
2959, 3118, 3151, 3150, 3117, 4207, 4240, 4239, 4206
2960, 3119, 3152, 3151, 3118, 4208, 4241, 4240, 4207
2961, 3120, 3153, 3152, 3119, 4209, 4242, 4241, 4208
2962, 3121, 3154, 3153, 3120, 4210, 4243, 4242, 4209
2963, 3122, 3155, 3154, 3121, 4211, 4244, 4243, 4210
2964, 3123, 3156, 3155, 3122, 4212, 4245, 4244, 4211
2965, 3124, 3157, 3156, 3123, 4213, 4246, 4245, 4212
2966, 3125, 3158, 3157, 3124, 4214, 4247, 4246, 4213
2967, 3126, 3159, 3158, 3125, 4215, 4248, 4247, 4214
2968, 3127, 3160, 3159, 3126, 4216, 4249, 4248, 4215
2969, 3128, 3161, 3160, 3127, 4217, 4250, 4249, 4216
2970, 3129, 3162, 3161, 3128, 4218, 4251, 4250, 4217
2971, 3130, 3163, 3162, 3129, 4219, 4252, 4251, 4218
2972, 3131, 3164, 3163, 3130, 4220, 4253, 4252, 4219
2973, 3132, 3165, 3164, 3131, 4221, 4254, 4253, 4220
2974, 3133, 3166, 3165, 3132, 4222, 4255, 4254, 4221
2975, 3134, 3167, 3166, 3133, 4223, 4256, 4255, 4222
2976, 3135, 3168, 3167, 3134, 4224, 4257, 4256, 4223
2977, 3137, 3170, 3169, 3136, 4226, 4259, 4258, 4225
2978, 3138, 3171, 3170, 3137, 4227, 4260, 4259, 4226
2979, 3139, 3172, 3171, 3138, 4228, 4261, 4260, 4227
2980, 3140, 3173, 3172, 3139, 4229, 4262, 4261, 4228
2981, 3141, 3174, 3173, 3140, 4230, 4263, 4262, 4229
2982, 3142, 3175, 3174, 3141, 4231, 4264, 4263, 4230
2983, 3143, 3176, 3175, 3142, 4232, 4265, 4264, 4231
2984, 3144, 3177, 3176, 3143, 4233, 4266, 4265, 4232
2985, 3145, 3178, 3177, 3144, 4234, 4267, 4266, 4233
2986, 3146, 3179, 3178, 3145, 4235, 4268, 4267, 4234
2987, 3147, 3180, 3179, 3146, 4236, 4269, 4268, 4235
2988, 3148, 3181, 3180, 3147, 4237, 4270, 4269, 4236
2989, 3149, 3182, 3181, 3148, 4238, 4271, 4270, 4237
2990, 3150, 3183, 3182, 3149, 4239, 4272, 4271, 4238
2991, 3151, 3184, 3183, 3150, 4240, 4273, 4272, 4239
2992, 3152, 3185, 3184, 3151, 4241, 4274, 4273, 4240
2993, 3153, 3186, 3185, 3152, 4242, 4275, 4274, 4241
2994, 3154, 3187, 3186, 3153, 4243, 4276, 4275, 4242
2995, 3155, 3188, 3187, 3154, 4244, 4277, 4276, 4243
2996, 3156, 3189, 3188, 3155, 4245, 4278, 4277, 4244
2997, 3157, 3190, 3189, 3156, 4246, 4279, 4278, 4245
2998, 3158, 3191, 3190, 3157, 4247, 4280, 4279, 4246
2999, 3159, 3192, 3191, 3158, 4248, 4281, 4280, 4247
3000, 3160, 3193, 3192, 3159, 4249, 4282, 4281, 4248
3001, 3161, 3194, 3193, 3160, 4250, 4283, 4282, 4249
3002, 3162, 3195, 3194, 3161, 4251, 4284, 4283, 4250
3003, 3163, 3196, 3195, 3162, 4252, 4285, 4284, 4251
3004, 3164, 3197, 3196, 3163, 4253, 4286, 4285, 4252
3005, 3165, 3198, 3197, 3164, 4254, 4287, 4286, 4253
3006, 3166, 3199, 3198, 3165, 4255, 4288, 4287, 4254
3007, 3167, 3200, 3199, 3166, 4256, 4289, 4288, 4255
3008, 3168, 3201, 3200, 3167, 4257, 4290, 4289, 4256
3009, 3170, 3203, 3202, 3169, 4259, 4292, 4291, 4258
3010, 3171, 3204, 3203, 3170, 4260, 4293, 4292, 4259
3011, 3172, 3205, 3204, 3171, 4261, 4294, 4293, 4260
3012, 3173, 3206, 3205, 3172, 4262, 4295, 4294, 4261
3013, 3174, 3207, 3206, 3173, 4263, 4296, 4295, 4262
3014, 3175, 3208, 3207, 3174, 4264, 4297, 4296, 4263
3015, 3176, 3209, 3208, 3175, 4265, 4298, 4297, 4264
3016, 3177, 3210, 3209, 3176, 4266, 4299, 4298, 4265
3017, 3178, 3211, 3210, 3177, 4267, 4300, 4299, 4266
3018, 3179, 3212, 3211, 3178, 4268, 4301, 4300, 4267
3019, 3180, 3213, 3212, 3179, 4269, 4302, 4301, 4268
3020, 3181, 3214, 3213, 3180, 4270, 4303, 4302, 4269
3021, 3182, 3215, 3214, 3181, 4271, 4304, 4303, 4270
3022, 3183, 3216, 3215, 3182, 4272, 4305, 4304, 4271
3023, 3184, 3217, 3216, 3183, 4273, 4306, 4305, 4272
3024, 3185, 3218, 3217, 3184, 4274, 4307, 4306, 4273
3025, 3186, 3219, 3218, 3185, 4275, 4308, 4307, 4274
3026, 3187, 3220, 3219, 3186, 4276, 4309, 4308, 4275
3027, 3188, 3221, 3220, 3187, 4277, 4310, 4309, 4276
3028, 3189, 3222, 3221, 3188, 4278, 4311, 4310, 4277
3029, 3190, 3223, 3222, 3189, 4279, 4312, 4311, 4278
3030, 3191, 3224, 3223, 3190, 4280, 4313, 4312, 4279
3031, 3192, 3225, 3224, 3191, 4281, 4314, 4313, 4280
3032, 3193, 3226, 3225, 3192, 4282, 4315, 4314, 4281
3033, 3194, 3227, 3226, 3193, 4283, 4316, 4315, 4282
3034, 3195, 3228, 3227, 3194, 4284, 4317, 4316, 4283
3035, 3196, 3229, 3228, 3195, 4285, 4318, 4317, 4284
3036, 3197, 3230, 3229, 3196, 4286, 4319, 4318, 4285
3037, 3198, 3231, 3230, 3197, 4287, 4320, 4319, 4286
3038, 3199, 3232, 3231, 3198, 4288, 4321, 4320, 4287
3039, 3200, 3233, 3232, 3199, 4289, 4322, 4321, 4288
3040, 3201, 3234, 3233, 3200, 4290, 4323, 4322, 4289
3041, 3203, 3236, 3235, 3202, 4292, 4325, 4324, 4291
3042, 3204, 3237, 3236, 3203, 4293, 4326, 4325, 4292
3043, 3205, 3238, 3237, 3204, 4294, 4327, 4326, 4293
3044, 3206, 3239, 3238, 3205, 4295, 4328, 4327, 4294
3045, 3207, 3240, 3239, 3206, 4296, 4329, 4328, 4295
3046, 3208, 3241, 3240, 3207, 4297, 4330, 4329, 4296
3047, 3209, 3242, 3241, 3208, 4298, 4331, 4330, 4297
3048, 3210, 3243, 3242, 3209, 4299, 4332, 4331, 4298
3049, 3211, 3244, 3243, 3210, 4300, 4333, 4332, 4299
3050, 3212, 3245, 3244, 3211, 4301, 4334, 4333, 4300
3051, 3213, 3246, 3245, 3212, 4302, 4335, 4334, 4301
3052, 3214, 3247, 3246, 3213, 4303, 4336, 4335, 4302
3053, 3215, 3248, 3247, 3214, 4304, 4337, 4336, 4303
3054, 3216, 3249, 3248, 3215, 4305, 4338, 4337, 4304
3055, 3217, 3250, 3249, 3216, 4306, 4339, 4338, 4305
3056, 3218, 3251, 3250, 3217, 4307, 4340, 4339, 4306
3057, 3219, 3252, 3251, 3218, 4308, 4341, 4340, 4307
3058, 3220, 3253, 3252, 3219, 4309, 4342, 4341, 4308
3059, 3221, 3254, 3253, 3220, 4310, 4343, 4342, 4309
3060, 3222, 3255, 3254, 3221, 4311, 4344, 4343, 4310
3061, 3223, 3256, 3255, 3222, 4312, 4345, 4344, 4311
3062, 3224, 3257, 3256, 3223, 4313, 4346, 4345, 4312
3063, 3225, 3258, 3257, 3224, 4314, 4347, 4346, 4313
3064, 3226, 3259, 3258, 3225, 4315, 4348, 4347, 4314
3065, 3227, 3260, 3259, 3226, 4316, 4349, 4348, 4315
3066, 3228, 3261, 3260, 3227, 4317, 4350, 4349, 4316
3067, 3229, 3262, 3261, 3228, 4318, 4351, 4350, 4317
3068, 3230, 3263, 3262, 3229, 4319, 4352, 4351, 4318
3069, 3231, 3264, 3263, 3230, 4320, 4353, 4352, 4319
3070, 3232, 3265, 3264, 3231, 4321, 4354, 4353, 4320
3071, 3233, 3266, 3265, 3232, 4322, 4355, 4354, 4321
3072, 3234, 3267, 3266, 3233, 4323, 4356, 4355, 4322
3073, 3269, 3302, 3301, 3268, 4358, 4391, 4390, 4357
3074, 3270, 3303, 3302, 3269, 4359, 4392, 4391, 4358
3075, 3271, 3304, 3303, 3270, 4360, 4393, 4392, 4359
3076, 3272, 3305, 3304, 3271, 4361, 4394, 4393, 4360
3077, 3273, 3306, 3305, 3272, 4362, 4395, 4394, 4361
3078, 3274, 3307, 3306, 3273, 4363, 4396, 4395, 4362
3079, 3275, 3308, 3307, 3274, 4364, 4397, 4396, 4363
3080, 3276, 3309, 3308, 3275, 4365, 4398, 4397, 4364
3081, 3277, 3310, 3309, 3276, 4366, 4399, 4398, 4365
3082, 3278, 3311, 3310, 3277, 4367, 4400, 4399, 4366
3083, 3279, 3312, 3311, 3278, 4368, 4401, 4400, 4367
3084, 3280, 3313, 3312, 3279, 4369, 4402, 4401, 4368
3085, 3281, 3314, 3313, 3280, 4370, 4403, 4402, 4369
3086, 3282, 3315, 3314, 3281, 4371, 4404, 4403, 4370
3087, 3283, 3316, 3315, 3282, 4372, 4405, 4404, 4371
3088, 3284, 3317, 3316, 3283, 4373, 4406, 4405, 4372
3089, 3285, 3318, 3317, 3284, 4374, 4407, 4406, 4373
3090, 3286, 3319, 3318, 3285, 4375, 4408, 4407, 4374
3091, 3287, 3320, 3319, 3286, 4376, 4409, 4408, 4375
3092, 3288, 3321, 3320, 3287, 4377, 4410, 4409, 4376
3093, 3289, 3322, 3321, 3288, 4378, 4411, 4410, 4377
3094, 3290, 3323, 3322, 3289, 4379, 4412, 4411, 4378
3095, 3291, 3324, 3323, 3290, 4380, 4413, 4412, 4379
3096, 3292, 3325, 3324, 3291, 4381, 4414, 4413, 4380
3097, 3293, 3326, 3325, 3292, 4382, 4415, 4414, 4381
3098, 3294, 3327, 3326, 3293, 4383, 4416, 4415, 4382
3099, 3295, 3328, 3327, 3294, 4384, 4417, 4416, 4383
3100, 3296, 3329, 3328, 3295, 4385, 4418, 4417, 4384
3101, 3297, 3330, 3329, 3296, 4386, 4419, 4418, 4385
3102, 3298, 3331, 3330, 3297, 4387, 4420, 4419, 4386
3103, 3299, 3332, 3331, 3298, 4388, 4421, 4420, 4387
3104, 3300, 3333, 3332, 3299, 4389, 4422, 4421, 4388
3105, 3302, 3335, 3334, 3301, 4391, 4424, 4423, 4390
3106, 3303, 3336, 3335, 3302, 4392, 4425, 4424, 4391
3107, 3304, 3337, 3336, 3303, 4393, 4426, 4425, 4392
3108, 3305, 3338, 3337, 3304, 4394, 4427, 4426, 4393
3109, 3306, 3339, 3338, 3305, 4395, 4428, 4427, 4394
3110, 3307, 3340, 3339, 3306, 4396, 4429, 4428, 4395
3111, 3308, 3341, 3340, 3307, 4397, 4430, 4429, 4396
3112, 3309, 3342, 3341, 3308, 4398, 4431, 4430, 4397
3113, 3310, 3343, 3342, 3309, 4399, 4432, 4431, 4398
3114, 3311, 3344, 3343, 3310, 4400, 4433, 4432, 4399
3115, 3312, 3345, 3344, 3311, 4401, 4434, 4433, 4400
3116, 3313, 3346, 3345, 3312, 4402, 4435, 4434, 4401
3117, 3314, 3347, 3346, 3313, 4403, 4436, 4435, 4402
3118, 3315, 3348, 3347, 3314, 4404, 4437, 4436, 4403
3119, 3316, 3349, 3348, 3315, 4405, 4438, 4437, 4404
3120, 3317, 3350, 3349, 3316, 4406, 4439, 4438, 4405
3121, 3318, 3351, 3350, 3317, 4407, 4440, 4439, 4406
3122, 3319, 3352, 3351, 3318, 4408, 4441, 4440, 4407
3123, 3320, 3353, 3352, 3319, 4409, 4442, 4441, 4408
3124, 3321, 3354, 3353, 3320, 4410, 4443, 4442, 4409
3125, 3322, 3355, 3354, 3321, 4411, 4444, 4443, 4410
3126, 3323, 3356, 3355, 3322, 4412, 4445, 4444, 4411
3127, 3324, 3357, 3356, 3323, 4413, 4446, 4445, 4412
3128, 3325, 3358, 3357, 3324, 4414, 4447, 4446, 4413
3129, 3326, 3359, 3358, 3325, 4415, 4448, 4447, 4414
3130, 3327, 3360, 3359, 3326, 4416, 4449, 4448, 4415
3131, 3328, 3361, 3360, 3327, 4417, 4450, 4449, 4416
3132, 3329, 3362, 3361, 3328, 4418, 4451, 4450, 4417
3133, 3330, 3363, 3362, 3329, 4419, 4452, 4451, 4418
3134, 3331, 3364, 3363, 3330, 4420, 4453, 4452, 4419
3135, 3332, 3365, 3364, 3331, 4421, 4454, 4453, 4420
3136, 3333, 3366, 3365, 3332, 4422, 4455, 4454, 4421
3137, 3335, 3368, 3367, 3334, 4424, 4457, 4456, 4423
3138, 3336, 3369, 3368, 3335, 4425, 4458, 4457, 4424
3139, 3337, 3370, 3369, 3336, 4426, 4459, 4458, 4425
3140, 3338, 3371, 3370, 3337, 4427, 4460, 4459, 4426
3141, 3339, 3372, 3371, 3338, 4428, 4461, 4460, 4427
3142, 3340, 3373, 3372, 3339, 4429, 4462, 4461, 4428
3143, 3341, 3374, 3373, 3340, 4430, 4463, 4462, 4429
3144, 3342, 3375, 3374, 3341, 4431, 4464, 4463, 4430
3145, 3343, 3376, 3375, 3342, 4432, 4465, 4464, 4431
3146, 3344, 3377, 3376, 3343, 4433, 4466, 4465, 4432
3147, 3345, 3378, 3377, 3344, 4434, 4467, 4466, 4433
3148, 3346, 3379, 3378, 3345, 4435, 4468, 4467, 4434
3149, 3347, 3380, 3379, 3346, 4436, 4469, 4468, 4435
3150, 3348, 3381, 3380, 3347, 4437, 4470, 4469, 4436
3151, 3349, 3382, 3381, 3348, 4438, 4471, 4470, 4437
3152, 3350, 3383, 3382, 3349, 4439, 4472, 4471, 4438
3153, 3351, 3384, 3383, 3350, 4440, 4473, 4472, 4439
3154, 3352, 3385, 3384, 3351, 4441, 4474, 4473, 4440
3155, 3353, 3386, 3385, 3352, 4442, 4475, 4474, 4441
3156, 3354, 3387, 3386, 3353, 4443, 4476, 4475, 4442
3157, 3355, 3388, 3387, 3354, 4444, 4477, 4476, 4443
3158, 3356, 3389, 3388, 3355, 4445, 4478, 4477, 4444
3159, 3357, 3390, 3389, 3356, 4446, 4479, 4478, 4445
3160, 3358, 3391, 3390, 3357, 4447, 4480, 4479, 4446
3161, 3359, 3392, 3391, 3358, 4448, 4481, 4480, 4447
3162, 3360, 3393, 3392, 3359, 4449, 4482, 4481, 4448
3163, 3361, 3394, 3393, 3360, 4450, 4483, 4482, 4449
3164, 3362, 3395, 3394, 3361, 4451, 4484, 4483, 4450
3165, 3363, 3396, 3395, 3362, 4452, 4485, 4484, 4451
3166, 3364, 3397, 3396, 3363, 4453, 4486, 4485, 4452
3167, 3365, 3398, 3397, 3364, 4454, 4487, 4486, 4453
3168, 3366, 3399, 3398, 3365, 4455, 4488, 4487, 4454
3169, 3368, 3401, 3400, 3367, 4457, 4490, 4489, 4456
3170, 3369, 3402, 3401, 3368, 4458, 4491, 4490, 4457
3171, 3370, 3403, 3402, 3369, 4459, 4492, 4491, 4458
3172, 3371, 3404, 3403, 3370, 4460, 4493, 4492, 4459
3173, 3372, 3405, 3404, 3371, 4461, 4494, 4493, 4460
3174, 3373, 3406, 3405, 3372, 4462, 4495, 4494, 4461
3175, 3374, 3407, 3406, 3373, 4463, 4496, 4495, 4462
3176, 3375, 3408, 3407, 3374, 4464, 4497, 4496, 4463
3177, 3376, 3409, 3408, 3375, 4465, 4498, 4497, 4464
3178, 3377, 3410, 3409, 3376, 4466, 4499, 4498, 4465
3179, 3378, 3411, 3410, 3377, 4467, 4500, 4499, 4466
3180, 3379, 3412, 3411, 3378, 4468, 4501, 4500, 4467
3181, 3380, 3413, 3412, 3379, 4469, 4502, 4501, 4468
3182, 3381, 3414, 3413, 3380, 4470, 4503, 4502, 4469
3183, 3382, 3415, 3414, 3381, 4471, 4504, 4503, 4470
3184, 3383, 3416, 3415, 3382, 4472, 4505, 4504, 4471
3185, 3384, 3417, 3416, 3383, 4473, 4506, 4505, 4472
3186, 3385, 3418, 3417, 3384, 4474, 4507, 4506, 4473
3187, 3386, 3419, 3418, 3385, 4475, 4508, 4507, 4474
3188, 3387, 3420, 3419, 3386, 4476, 4509, 4508, 4475
3189, 3388, 3421, 3420, 3387, 4477, 4510, 4509, 4476
3190, 3389, 3422, 3421, 3388, 4478, 4511, 4510, 4477
3191, 3390, 3423, 3422, 3389, 4479, 4512, 4511, 4478
3192, 3391, 3424, 3423, 3390, 4480, 4513, 4512, 4479
3193, 3392, 3425, 3424, 3391, 4481, 4514, 4513, 4480
3194, 3393, 3426, 3425, 3392, 4482, 4515, 4514, 4481
3195, 3394, 3427, 3426, 3393, 4483, 4516, 4515, 4482
3196, 3395, 3428, 3427, 3394, 4484, 4517, 4516, 4483
3197, 3396, 3429, 3428, 3395, 4485, 4518, 4517, 4484
3198, 3397, 3430, 3429, 3396, 4486, 4519, 4518, 4485
3199, 3398, 3431, 3430, 3397, 4487, 4520, 4519, 4486
3200, 3399, 3432, 3431, 3398, 4488, 4521, 4520, 4487
3201, 3401, 3434, 3433, 3400, 4490, 4523, 4522, 4489
3202, 3402, 3435, 3434, 3401, 4491, 4524, 4523, 4490
3203, 3403, 3436, 3435, 3402, 4492, 4525, 4524, 4491
3204, 3404, 3437, 3436, 3403, 4493, 4526, 4525, 4492
3205, 3405, 3438, 3437, 3404, 4494, 4527, 4526, 4493
3206, 3406, 3439, 3438, 3405, 4495, 4528, 4527, 4494
3207, 3407, 3440, 3439, 3406, 4496, 4529, 4528, 4495
3208, 3408, 3441, 3440, 3407, 4497, 4530, 4529, 4496
3209, 3409, 3442, 3441, 3408, 4498, 4531, 4530, 4497
3210, 3410, 3443, 3442, 3409, 4499, 4532, 4531, 4498
3211, 3411, 3444, 3443, 3410, 4500, 4533, 4532, 4499
3212, 3412, 3445, 3444, 3411, 4501, 4534, 4533, 4500
3213, 3413, 3446, 3445, 3412, 4502, 4535, 4534, 4501
3214, 3414, 3447, 3446, 3413, 4503, 4536, 4535, 4502
3215, 3415, 3448, 3447, 3414, 4504, 4537, 4536, 4503
3216, 3416, 3449, 3448, 3415, 4505, 4538, 4537, 4504
3217, 3417, 3450, 3449, 3416, 4506, 4539, 4538, 4505
3218, 3418, 3451, 3450, 3417, 4507, 4540, 4539, 4506
3219, 3419, 3452, 3451, 3418, 4508, 4541, 4540, 4507
3220, 3420, 3453, 3452, 3419, 4509, 4542, 4541, 4508
3221, 3421, 3454, 3453, 3420, 4510, 4543, 4542, 4509
3222, 3422, 3455, 3454, 3421, 4511, 4544, 4543, 4510
3223, 3423, 3456, 3455, 3422, 4512, 4545, 4544, 4511
3224, 3424, 3457, 3456, 3423, 4513, 4546, 4545, 4512
3225, 3425, 3458, 3457, 3424, 4514, 4547, 4546, 4513
3226, 3426, 3459, 3458, 3425, 4515, 4548, 4547, 4514
3227, 3427, 3460, 3459, 3426, 4516, 4549, 4548, 4515
3228, 3428, 3461, 3460, 3427, 4517, 4550, 4549, 4516
3229, 3429, 3462, 3461, 3428, 4518, 4551, 4550, 4517
3230, 3430, 3463, 3462, 3429, 4519, 4552, 4551, 4518
3231, 3431, 3464, 3463, 3430, 4520, 4553, 4552, 4519
3232, 3432, 3465, 3464, 3431, 4521, 4554, 4553, 4520
3233, 3434, 3467, 3466, 3433, 4523, 4556, 4555, 4522
3234, 3435, 3468, 3467, 3434, 4524, 4557, 4556, 4523
3235, 3436, 3469, 3468, 3435, 4525, 4558, 4557, 4524
3236, 3437, 3470, 3469, 3436, 4526, 4559, 4558, 4525
3237, 3438, 3471, 3470, 3437, 4527, 4560, 4559, 4526
3238, 3439, 3472, 3471, 3438, 4528, 4561, 4560, 4527
3239, 3440, 3473, 3472, 3439, 4529, 4562, 4561, 4528
3240, 3441, 3474, 3473, 3440, 4530, 4563, 4562, 4529
3241, 3442, 3475, 3474, 3441, 4531, 4564, 4563, 4530
3242, 3443, 3476, 3475, 3442, 4532, 4565, 4564, 4531
3243, 3444, 3477, 3476, 3443, 4533, 4566, 4565, 4532
3244, 3445, 3478, 3477, 3444, 4534, 4567, 4566, 4533
3245, 3446, 3479, 3478, 3445, 4535, 4568, 4567, 4534
3246, 3447, 3480, 3479, 3446, 4536, 4569, 4568, 4535
3247, 3448, 3481, 3480, 3447, 4537, 4570, 4569, 4536
3248, 3449, 3482, 3481, 3448, 4538, 4571, 4570, 4537
3249, 3450, 3483, 3482, 3449, 4539, 4572, 4571, 4538
3250, 3451, 3484, 3483, 3450, 4540, 4573, 4572, 4539
3251, 3452, 3485, 3484, 3451, 4541, 4574, 4573, 4540
3252, 3453, 3486, 3485, 3452, 4542, 4575, 4574, 4541
3253, 3454, 3487, 3486, 3453, 4543, 4576, 4575, 4542
3254, 3455, 3488, 3487, 3454, 4544, 4577, 4576, 4543
3255, 3456, 3489, 3488, 3455, 4545, 4578, 4577, 4544
3256, 3457, 3490, 3489, 3456, 4546, 4579, 4578, 4545
3257, 3458, 3491, 3490, 3457, 4547, 4580, 4579, 4546
3258, 3459, 3492, 3491, 3458, 4548, 4581, 4580, 4547
3259, 3460, 3493, 3492, 3459, 4549, 4582, 4581, 4548
3260, 3461, 3494, 3493, 3460, 4550, 4583, 4582, 4549
3261, 3462, 3495, 3494, 3461, 4551, 4584, 4583, 4550
3262, 3463, 3496, 3495, 3462, 4552, 4585, 4584, 4551
3263, 3464, 3497, 3496, 3463, 4553, 4586, 4585, 4552
3264, 3465, 3498, 3497, 3464, 4554, 4587, 4586, 4553
3265, 3467, 3500, 3499, 3466, 4556, 4589, 4588, 4555
3266, 3468, 3501, 3500, 3467, 4557, 4590, 4589, 4556
3267, 3469, 3502, 3501, 3468, 4558, 4591, 4590, 4557
3268, 3470, 3503, 3502, 3469, 4559, 4592, 4591, 4558
3269, 3471, 3504, 3503, 3470, 4560, 4593, 4592, 4559
3270, 3472, 3505, 3504, 3471, 4561, 4594, 4593, 4560
3271, 3473, 3506, 3505, 3472, 4562, 4595, 4594, 4561
3272, 3474, 3507, 3506, 3473, 4563, 4596, 4595, 4562
3273, 3475, 3508, 3507, 3474, 4564, 4597, 4596, 4563
3274, 3476, 3509, 3508, 3475, 4565, 4598, 4597, 4564
3275, 3477, 3510, 3509, 3476, 4566, 4599, 4598, 4565
3276, 3478, 3511, 3510, 3477, 4567, 4600, 4599, 4566
3277, 3479, 3512, 3511, 3478, 4568, 4601, 4600, 4567
3278, 3480, 3513, 3512, 3479, 4569, 4602, 4601, 4568
3279, 3481, 3514, 3513, 3480, 4570, 4603, 4602, 4569
3280, 3482, 3515, 3514, 3481, 4571, 4604, 4603, 4570
3281, 3483, 3516, 3515, 3482, 4572, 4605, 4604, 4571
3282, 3484, 3517, 3516, 3483, 4573, 4606, 4605, 4572
3283, 3485, 3518, 3517, 3484, 4574, 4607, 4606, 4573
3284, 3486, 3519, 3518, 3485, 4575, 4608, 4607, 4574
3285, 3487, 3520, 3519, 3486, 4576, 4609, 4608, 4575
3286, 3488, 3521, 3520, 3487, 4577, 4610, 4609, 4576
3287, 3489, 3522, 3521, 3488, 4578, 4611, 4610, 4577
3288, 3490, 3523, 3522, 3489, 4579, 4612, 4611, 4578
3289, 3491, 3524, 3523, 3490, 4580, 4613, 4612, 4579
3290, 3492, 3525, 3524, 3491, 4581, 4614, 4613, 4580
3291, 3493, 3526, 3525, 3492, 4582, 4615, 4614, 4581
3292, 3494, 3527, 3526, 3493, 4583, 4616, 4615, 4582
3293, 3495, 3528, 3527, 3494, 4584, 4617, 4616, 4583
3294, 3496, 3529, 3528, 3495, 4585, 4618, 4617, 4584
3295, 3497, 3530, 3529, 3496, 4586, 4619, 4618, 4585
3296, 3498, 3531, 3530, 3497, 4587, 4620, 4619, 4586
3297, 3500, 3533, 3532, 3499, 4589, 4622, 4621, 4588
3298, 3501, 3534, 3533, 3500, 4590, 4623, 4622, 4589
3299, 3502, 3535, 3534, 3501, 4591, 4624, 4623, 4590
3300, 3503, 3536, 3535, 3502, 4592, 4625, 4624, 4591
3301, 3504, 3537, 3536, 3503, 4593, 4626, 4625, 4592
3302, 3505, 3538, 3537, 3504, 4594, 4627, 4626, 4593
3303, 3506, 3539, 3538, 3505, 4595, 4628, 4627, 4594
3304, 3507, 3540, 3539, 3506, 4596, 4629, 4628, 4595
3305, 3508, 3541, 3540, 3507, 4597, 4630, 4629, 4596
3306, 3509, 3542, 3541, 3508, 4598, 4631, 4630, 4597
3307, 3510, 3543, 3542, 3509, 4599, 4632, 4631, 4598
3308, 3511, 3544, 3543, 3510, 4600, 4633, 4632, 4599
3309, 3512, 3545, 3544, 3511, 4601, 4634, 4633, 4600
3310, 3513, 3546, 3545, 3512, 4602, 4635, 4634, 4601
3311, 3514, 3547, 3546, 3513, 4603, 4636, 4635, 4602
3312, 3515, 3548, 3547, 3514, 4604, 4637, 4636, 4603
3313, 3516, 3549, 3548, 3515, 4605, 4638, 4637, 4604
3314, 3517, 3550, 3549, 3516, 4606, 4639, 4638, 4605
3315, 3518, 3551, 3550, 3517, 4607, 4640, 4639, 4606
3316, 3519, 3552, 3551, 3518, 4608, 4641, 4640, 4607
3317, 3520, 3553, 3552, 3519, 4609, 4642, 4641, 4608
3318, 3521, 3554, 3553, 3520, 4610, 4643, 4642, 4609
3319, 3522, 3555, 3554, 3521, 4611, 4644, 4643, 4610
3320, 3523, 3556, 3555, 3522, 4612, 4645, 4644, 4611
3321, 3524, 3557, 3556, 3523, 4613, 4646, 4645, 4612
3322, 3525, 3558, 3557, 3524, 4614, 4647, 4646, 4613
3323, 3526, 3559, 3558, 3525, 4615, 4648, 4647, 4614
3324, 3527, 3560, 3559, 3526, 4616, 4649, 4648, 4615
3325, 3528, 3561, 3560, 3527, 4617, 4650, 4649, 4616
3326, 3529, 3562, 3561, 3528, 4618, 4651, 4650, 4617
3327, 3530, 3563, 3562, 3529, 4619, 4652, 4651, 4618
3328, 3531, 3564, 3563, 3530, 4620, 4653, 4652, 4619
3329, 3533, 3566, 3565, 3532, 4622, 4655, 4654, 4621
3330, 3534, 3567, 3566, 3533, 4623, 4656, 4655, 4622
3331, 3535, 3568, 3567, 3534, 4624, 4657, 4656, 4623
3332, 3536, 3569, 3568, 3535, 4625, 4658, 4657, 4624
3333, 3537, 3570, 3569, 3536, 4626, 4659, 4658, 4625
3334, 3538, 3571, 3570, 3537, 4627, 4660, 4659, 4626
3335, 3539, 3572, 3571, 3538, 4628, 4661, 4660, 4627
3336, 3540, 3573, 3572, 3539, 4629, 4662, 4661, 4628
3337, 3541, 3574, 3573, 3540, 4630, 4663, 4662, 4629
3338, 3542, 3575, 3574, 3541, 4631, 4664, 4663, 4630
3339, 3543, 3576, 3575, 3542, 4632, 4665, 4664, 4631
3340, 3544, 3577, 3576, 3543, 4633, 4666, 4665, 4632
3341, 3545, 3578, 3577, 3544, 4634, 4667, 4666, 4633
3342, 3546, 3579, 3578, 3545, 4635, 4668, 4667, 4634
3343, 3547, 3580, 3579, 3546, 4636, 4669, 4668, 4635
3344, 3548, 3581, 3580, 3547, 4637, 4670, 4669, 4636
3345, 3549, 3582, 3581, 3548, 4638, 4671, 4670, 4637
3346, 3550, 3583, 3582, 3549, 4639, 4672, 4671, 4638
3347, 3551, 3584, 3583, 3550, 4640, 4673, 4672, 4639
3348, 3552, 3585, 3584, 3551, 4641, 4674, 4673, 4640
3349, 3553, 3586, 3585, 3552, 4642, 4675, 4674, 4641
3350, 3554, 3587, 3586, 3553, 4643, 4676, 4675, 4642
3351, 3555, 3588, 3587, 3554, 4644, 4677, 4676, 4643
3352, 3556, 3589, 3588, 3555, 4645, 4678, 4677, 4644
3353, 3557, 3590, 3589, 3556, 4646, 4679, 4678, 4645
3354, 3558, 3591, 3590, 3557, 4647, 4680, 4679, 4646
3355, 3559, 3592, 3591, 3558, 4648, 4681, 4680, 4647
3356, 3560, 3593, 3592, 3559, 4649, 4682, 4681, 4648
3357, 3561, 3594, 3593, 3560, 4650, 4683, 4682, 4649
3358, 3562, 3595, 3594, 3561, 4651, 4684, 4683, 4650
3359, 3563, 3596, 3595, 3562, 4652, 4685, 4684, 4651
3360, 3564, 3597, 3596, 3563, 4653, 4686, 4685, 4652
3361, 3566, 3599, 3598, 3565, 4655, 4688, 4687, 4654
3362, 3567, 3600, 3599, 3566, 4656, 4689, 4688, 4655
3363, 3568, 3601, 3600, 3567, 4657, 4690, 4689, 4656
3364, 3569, 3602, 3601, 3568, 4658, 4691, 4690, 4657
3365, 3570, 3603, 3602, 3569, 4659, 4692, 4691, 4658
3366, 3571, 3604, 3603, 3570, 4660, 4693, 4692, 4659
3367, 3572, 3605, 3604, 3571, 4661, 4694, 4693, 4660
3368, 3573, 3606, 3605, 3572, 4662, 4695, 4694, 4661
3369, 3574, 3607, 3606, 3573, 4663, 4696, 4695, 4662
3370, 3575, 3608, 3607, 3574, 4664, 4697, 4696, 4663
3371, 3576, 3609, 3608, 3575, 4665, 4698, 4697, 4664
3372, 3577, 3610, 3609, 3576, 4666, 4699, 4698, 4665
3373, 3578, 3611, 3610, 3577, 4667, 4700, 4699, 4666
3374, 3579, 3612, 3611, 3578, 4668, 4701, 4700, 4667
3375, 3580, 3613, 3612, 3579, 4669, 4702, 4701, 4668
3376, 3581, 3614, 3613, 3580, 4670, 4703, 4702, 4669
3377, 3582, 3615, 3614, 3581, 4671, 4704, 4703, 4670
3378, 3583, 3616, 3615, 3582, 4672, 4705, 4704, 4671
3379, 3584, 3617, 3616, 3583, 4673, 4706, 4705, 4672
3380, 3585, 3618, 3617, 3584, 4674, 4707, 4706, 4673
3381, 3586, 3619, 3618, 3585, 4675, 4708, 4707, 4674
3382, 3587, 3620, 3619, 3586, 4676, 4709, 4708, 4675
3383, 3588, 3621, 3620, 3587, 4677, 4710, 4709, 4676
3384, 3589, 3622, 3621, 3588, 4678, 4711, 4710, 4677
3385, 3590, 3623, 3622, 3589, 4679, 4712, 4711, 4678
3386, 3591, 3624, 3623, 3590, 4680, 4713, 4712, 4679
3387, 3592, 3625, 3624, 3591, 4681, 4714, 4713, 4680
3388, 3593, 3626, 3625, 3592, 4682, 4715, 4714, 4681
3389, 3594, 3627, 3626, 3593, 4683, 4716, 4715, 4682
3390, 3595, 3628, 3627, 3594, 4684, 4717, 4716, 4683
3391, 3596, 3629, 3628, 3595, 4685, 4718, 4717, 4684
3392, 3597, 3630, 3629, 3596, 4686, 4719, 4718, 4685
3393, 3599, 3632, 3631, 3598, 4688, 4721, 4720, 4687
3394, 3600, 3633, 3632, 3599, 4689, 4722, 4721, 4688
3395, 3601, 3634, 3633, 3600, 4690, 4723, 4722, 4689
3396, 3602, 3635, 3634, 3601, 4691, 4724, 4723, 4690
3397, 3603, 3636, 3635, 3602, 4692, 4725, 4724, 4691
3398, 3604, 3637, 3636, 3603, 4693, 4726, 4725, 4692
3399, 3605, 3638, 3637, 3604, 4694, 4727, 4726, 4693
3400, 3606, 3639, 3638, 3605, 4695, 4728, 4727, 4694
3401, 3607, 3640, 3639, 3606, 4696, 4729, 4728, 4695
3402, 3608, 3641, 3640, 3607, 4697, 4730, 4729, 4696
3403, 3609, 3642, 3641, 3608, 4698, 4731, 4730, 4697
3404, 3610, 3643, 3642, 3609, 4699, 4732, 4731, 4698
3405, 3611, 3644, 3643, 3610, 4700, 4733, 4732, 4699
3406, 3612, 3645, 3644, 3611, 4701, 4734, 4733, 4700
3407, 3613, 3646, 3645, 3612, 4702, 4735, 4734, 4701
3408, 3614, 3647, 3646, 3613, 4703, 4736, 4735, 4702
3409, 3615, 3648, 3647, 3614, 4704, 4737, 4736, 4703
3410, 3616, 3649, 3648, 3615, 4705, 4738, 4737, 4704
3411, 3617, 3650, 3649, 3616, 4706, 4739, 4738, 4705
3412, 3618, 3651, 3650, 3617, 4707, 4740, 4739, 4706
3413, 3619, 3652, 3651, 3618, 4708, 4741, 4740, 4707
3414, 3620, 3653, 3652, 3619, 4709, 4742, 4741, 4708
3415, 3621, 3654, 3653, 3620, 4710, 4743, 4742, 4709
3416, 3622, 3655, 3654, 3621, 4711, 4744, 4743, 4710
3417, 3623, 3656, 3655, 3622, 4712, 4745, 4744, 4711
3418, 3624, 3657, 3656, 3623, 4713, 4746, 4745, 4712
3419, 3625, 3658, 3657, 3624, 4714, 4747, 4746, 4713
3420, 3626, 3659, 3658, 3625, 4715, 4748, 4747, 4714
3421, 3627, 3660, 3659, 3626, 4716, 4749, 4748, 4715
3422, 3628, 3661, 3660, 3627, 4717, 4750, 4749, 4716
3423, 3629, 3662, 3661, 3628, 4718, 4751, 4750, 4717
3424, 3630, 3663, 3662, 3629, 4719, 4752, 4751, 4718
3425, 3632, 3665, 3664, 3631, 4721, 4754, 4753, 4720
3426, 3633, 3666, 3665, 3632, 4722, 4755, 4754, 4721
3427, 3634, 3667, 3666, 3633, 4723, 4756, 4755, 4722
3428, 3635, 3668, 3667, 3634, 4724, 4757, 4756, 4723
3429, 3636, 3669, 3668, 3635, 4725, 4758, 4757, 4724
3430, 3637, 3670, 3669, 3636, 4726, 4759, 4758, 4725
3431, 3638, 3671, 3670, 3637, 4727, 4760, 4759, 4726
3432, 3639, 3672, 3671, 3638, 4728, 4761, 4760, 4727
3433, 3640, 3673, 3672, 3639, 4729, 4762, 4761, 4728
3434, 3641, 3674, 3673, 3640, 4730, 4763, 4762, 4729
3435, 3642, 3675, 3674, 3641, 4731, 4764, 4763, 4730
3436, 3643, 3676, 3675, 3642, 4732, 4765, 4764, 4731
3437, 3644, 3677, 3676, 3643, 4733, 4766, 4765, 4732
3438, 3645, 3678, 3677, 3644, 4734, 4767, 4766, 4733
3439, 3646, 3679, 3678, 3645, 4735, 4768, 4767, 4734
3440, 3647, 3680, 3679, 3646, 4736, 4769, 4768, 4735
3441, 3648, 3681, 3680, 3647, 4737, 4770, 4769, 4736
3442, 3649, 3682, 3681, 3648, 4738, 4771, 4770, 4737
3443, 3650, 3683, 3682, 3649, 4739, 4772, 4771, 4738
3444, 3651, 3684, 3683, 3650, 4740, 4773, 4772, 4739
3445, 3652, 3685, 3684, 3651, 4741, 4774, 4773, 4740
3446, 3653, 3686, 3685, 3652, 4742, 4775, 4774, 4741
3447, 3654, 3687, 3686, 3653, 4743, 4776, 4775, 4742
3448, 3655, 3688, 3687, 3654, 4744, 4777, 4776, 4743
3449, 3656, 3689, 3688, 3655, 4745, 4778, 4777, 4744
3450, 3657, 3690, 3689, 3656, 4746, 4779, 4778, 4745
3451, 3658, 3691, 3690, 3657, 4747, 4780, 4779, 4746
3452, 3659, 3692, 3691, 3658, 4748, 4781, 4780, 4747
3453, 3660, 3693, 3692, 3659, 4749, 4782, 4781, 4748
3454, 3661, 3694, 3693, 3660, 4750, 4783, 4782, 4749
3455, 3662, 3695, 3694, 3661, 4751, 4784, 4783, 4750
3456, 3663, 3696, 3695, 3662, 4752, 4785, 4784, 4751
3457, 3665, 3698, 3697, 3664, 4754, 4787, 4786, 4753
3458, 3666, 3699, 3698, 3665, 4755, 4788, 4787, 4754
3459, 3667, 3700, 3699, 3666, 4756, 4789, 4788, 4755
3460, 3668, 3701, 3700, 3667, 4757, 4790, 4789, 4756
3461, 3669, 3702, 3701, 3668, 4758, 4791, 4790, 4757
3462, 3670, 3703, 3702, 3669, 4759, 4792, 4791, 4758
3463, 3671, 3704, 3703, 3670, 4760, 4793, 4792, 4759
3464, 3672, 3705, 3704, 3671, 4761, 4794, 4793, 4760
3465, 3673, 3706, 3705, 3672, 4762, 4795, 4794, 4761
3466, 3674, 3707, 3706, 3673, 4763, 4796, 4795, 4762
3467, 3675, 3708, 3707, 3674, 4764, 4797, 4796, 4763
3468, 3676, 3709, 3708, 3675, 4765, 4798, 4797, 4764
3469, 3677, 3710, 3709, 3676, 4766, 4799, 4798, 4765
3470, 3678, 3711, 3710, 3677, 4767, 4800, 4799, 4766
3471, 3679, 3712, 3711, 3678, 4768, 4801, 4800, 4767
3472, 3680, 3713, 3712, 3679, 4769, 4802, 4801, 4768
3473, 3681, 3714, 3713, 3680, 4770, 4803, 4802, 4769
3474, 3682, 3715, 3714, 3681, 4771, 4804, 4803, 4770
3475, 3683, 3716, 3715, 3682, 4772, 4805, 4804, 4771
3476, 3684, 3717, 3716, 3683, 4773, 4806, 4805, 4772
3477, 3685, 3718, 3717, 3684, 4774, 4807, 4806, 4773
3478, 3686, 3719, 3718, 3685, 4775, 4808, 4807, 4774
3479, 3687, 3720, 3719, 3686, 4776, 4809, 4808, 4775
3480, 3688, 3721, 3720, 3687, 4777, 4810, 4809, 4776
3481, 3689, 3722, 3721, 3688, 4778, 4811, 4810, 4777
3482, 3690, 3723, 3722, 3689, 4779, 4812, 4811, 4778
3483, 3691, 3724, 3723, 3690, 4780, 4813, 4812, 4779
3484, 3692, 3725, 3724, 3691, 4781, 4814, 4813, 4780
3485, 3693, 3726, 3725, 3692, 4782, 4815, 4814, 4781
3486, 3694, 3727, 3726, 3693, 4783, 4816, 4815, 4782
3487, 3695, 3728, 3727, 3694, 4784, 4817, 4816, 4783
3488, 3696, 3729, 3728, 3695, 4785, 4818, 4817, 4784
3489, 3698, 3731, 3730, 3697, 4787, 4820, 4819, 4786
3490, 3699, 3732, 3731, 3698, 4788, 4821, 4820, 4787
3491, 3700, 3733, 3732, 3699, 4789, 4822, 4821, 4788
3492, 3701, 3734, 3733, 3700, 4790, 4823, 4822, 4789
3493, 3702, 3735, 3734, 3701, 4791, 4824, 4823, 4790
3494, 3703, 3736, 3735, 3702, 4792, 4825, 4824, 4791
3495, 3704, 3737, 3736, 3703, 4793, 4826, 4825, 4792
3496, 3705, 3738, 3737, 3704, 4794, 4827, 4826, 4793
3497, 3706, 3739, 3738, 3705, 4795, 4828, 4827, 4794
3498, 3707, 3740, 3739, 3706, 4796, 4829, 4828, 4795
3499, 3708, 3741, 3740, 3707, 4797, 4830, 4829, 4796
3500, 3709, 3742, 3741, 3708, 4798, 4831, 4830, 4797
3501, 3710, 3743, 3742, 3709, 4799, 4832, 4831, 4798
3502, 3711, 3744, 3743, 3710, 4800, 4833, 4832, 4799
3503, 3712, 3745, 3744, 3711, 4801, 4834, 4833, 4800
3504, 3713, 3746, 3745, 3712, 4802, 4835, 4834, 4801
3505, 3714, 3747, 3746, 3713, 4803, 4836, 4835, 4802
3506, 3715, 3748, 3747, 3714, 4804, 4837, 4836, 4803
3507, 3716, 3749, 3748, 3715, 4805, 4838, 4837, 4804
3508, 3717, 3750, 3749, 3716, 4806, 4839, 4838, 4805
3509, 3718, 3751, 3750, 3717, 4807, 4840, 4839, 4806
3510, 3719, 3752, 3751, 3718, 4808, 4841, 4840, 4807
3511, 3720, 3753, 3752, 3719, 4809, 4842, 4841, 4808
3512, 3721, 3754, 3753, 3720, 4810, 4843, 4842, 4809
3513, 3722, 3755, 3754, 3721, 4811, 4844, 4843, 4810
3514, 3723, 3756, 3755, 3722, 4812, 4845, 4844, 4811
3515, 3724, 3757, 3756, 3723, 4813, 4846, 4845, 4812
3516, 3725, 3758, 3757, 3724, 4814, 4847, 4846, 4813
3517, 3726, 3759, 3758, 3725, 4815, 4848, 4847, 4814
3518, 3727, 3760, 3759, 3726, 4816, 4849, 4848, 4815
3519, 3728, 3761, 3760, 3727, 4817, 4850, 4849, 4816
3520, 3729, 3762, 3761, 3728, 4818, 4851, 4850, 4817
3521, 3731, 3764, 3763, 3730, 4820, 4853, 4852, 4819
3522, 3732, 3765, 3764, 3731, 4821, 4854, 4853, 4820
3523, 3733, 3766, 3765, 3732, 4822, 4855, 4854, 4821
3524, 3734, 3767, 3766, 3733, 4823, 4856, 4855, 4822
3525, 3735, 3768, 3767, 3734, 4824, 4857, 4856, 4823
3526, 3736, 3769, 3768, 3735, 4825, 4858, 4857, 4824
3527, 3737, 3770, 3769, 3736, 4826, 4859, 4858, 4825
3528, 3738, 3771, 3770, 3737, 4827, 4860, 4859, 4826
3529, 3739, 3772, 3771, 3738, 4828, 4861, 4860, 4827
3530, 3740, 3773, 3772, 3739, 4829, 4862, 4861, 4828
3531, 3741, 3774, 3773, 3740, 4830, 4863, 4862, 4829
3532, 3742, 3775, 3774, 3741, 4831, 4864, 4863, 4830
3533, 3743, 3776, 3775, 3742, 4832, 4865, 4864, 4831
3534, 3744, 3777, 3776, 3743, 4833, 4866, 4865, 4832
3535, 3745, 3778, 3777, 3744, 4834, 4867, 4866, 4833
3536, 3746, 3779, 3778, 3745, 4835, 4868, 4867, 4834
3537, 3747, 3780, 3779, 3746, 4836, 4869, 4868, 4835
3538, 3748, 3781, 3780, 3747, 4837, 4870, 4869, 4836
3539, 3749, 3782, 3781, 3748, 4838, 4871, 4870, 4837
3540, 3750, 3783, 3782, 3749, 4839, 4872, 4871, 4838
3541, 3751, 3784, 3783, 3750, 4840, 4873, 4872, 4839
3542, 3752, 3785, 3784, 3751, 4841, 4874, 4873, 4840
3543, 3753, 3786, 3785, 3752, 4842, 4875, 4874, 4841
3544, 3754, 3787, 3786, 3753, 4843, 4876, 4875, 4842
3545, 3755, 3788, 3787, 3754, 4844, 4877, 4876, 4843
3546, 3756, 3789, 3788, 3755, 4845, 4878, 4877, 4844
3547, 3757, 3790, 3789, 3756, 4846, 4879, 4878, 4845
3548, 3758, 3791, 3790, 3757, 4847, 4880, 4879, 4846
3549, 3759, 3792, 3791, 3758, 4848, 4881, 4880, 4847
3550, 3760, 3793, 3792, 3759, 4849, 4882, 4881, 4848
3551, 3761, 3794, 3793, 3760, 4850, 4883, 4882, 4849
3552, 3762, 3795, 3794, 3761, 4851, 4884, 4883, 4850
3553, 3764, 3797, 3796, 3763, 4853, 4886, 4885, 4852
3554, 3765, 3798, 3797, 3764, 4854, 4887, 4886, 4853
3555, 3766, 3799, 3798, 3765, 4855, 4888, 4887, 4854
3556, 3767, 3800, 3799, 3766, 4856, 4889, 4888, 4855
3557, 3768, 3801, 3800, 3767, 4857, 4890, 4889, 4856
3558, 3769, 3802, 3801, 3768, 4858, 4891, 4890, 4857
3559, 3770, 3803, 3802, 3769, 4859, 4892, 4891, 4858
3560, 3771, 3804, 3803, 3770, 4860, 4893, 4892, 4859
3561, 3772, 3805, 3804, 3771, 4861, 4894, 4893, 4860
3562, 3773, 3806, 3805, 3772, 4862, 4895, 4894, 4861
3563, 3774, 3807, 3806, 3773, 4863, 4896, 4895, 4862
3564, 3775, 3808, 3807, 3774, 4864, 4897, 4896, 4863
3565, 3776, 3809, 3808, 3775, 4865, 4898, 4897, 4864
3566, 3777, 3810, 3809, 3776, 4866, 4899, 4898, 4865
3567, 3778, 3811, 3810, 3777, 4867, 4900, 4899, 4866
3568, 3779, 3812, 3811, 3778, 4868, 4901, 4900, 4867
3569, 3780, 3813, 3812, 3779, 4869, 4902, 4901, 4868
3570, 3781, 3814, 3813, 3780, 4870, 4903, 4902, 4869
3571, 3782, 3815, 3814, 3781, 4871, 4904, 4903, 4870
3572, 3783, 3816, 3815, 3782, 4872, 4905, 4904, 4871
3573, 3784, 3817, 3816, 3783, 4873, 4906, 4905, 4872
3574, 3785, 3818, 3817, 3784, 4874, 4907, 4906, 4873
3575, 3786, 3819, 3818, 3785, 4875, 4908, 4907, 4874
3576, 3787, 3820, 3819, 3786, 4876, 4909, 4908, 4875
3577, 3788, 3821, 3820, 3787, 4877, 4910, 4909, 4876
3578, 3789, 3822, 3821, 3788, 4878, 4911, 4910, 4877
3579, 3790, 3823, 3822, 3789, 4879, 4912, 4911, 4878
3580, 3791, 3824, 3823, 3790, 4880, 4913, 4912, 4879
3581, 3792, 3825, 3824, 3791, 4881, 4914, 4913, 4880
3582, 3793, 3826, 3825, 3792, 4882, 4915, 4914, 4881
3583, 3794, 3827, 3826, 3793, 4883, 4916, 4915, 4882
3584, 3795, 3828, 3827, 3794, 4884, 4917, 4916, 4883
3585, 3797, 3830, 3829, 3796, 4886, 4919, 4918, 4885
3586, 3798, 3831, 3830, 3797, 4887, 4920, 4919, 4886
3587, 3799, 3832, 3831, 3798, 4888, 4921, 4920, 4887
3588, 3800, 3833, 3832, 3799, 4889, 4922, 4921, 4888
3589, 3801, 3834, 3833, 3800, 4890, 4923, 4922, 4889
3590, 3802, 3835, 3834, 3801, 4891, 4924, 4923, 4890
3591, 3803, 3836, 3835, 3802, 4892, 4925, 4924, 4891
3592, 3804, 3837, 3836, 3803, 4893, 4926, 4925, 4892
3593, 3805, 3838, 3837, 3804, 4894, 4927, 4926, 4893
3594, 3806, 3839, 3838, 3805, 4895, 4928, 4927, 4894
3595, 3807, 3840, 3839, 3806, 4896, 4929, 4928, 4895
3596, 3808, 3841, 3840, 3807, 4897, 4930, 4929, 4896
3597, 3809, 3842, 3841, 3808, 4898, 4931, 4930, 4897
3598, 3810, 3843, 3842, 3809, 4899, 4932, 4931, 4898
3599, 3811, 3844, 3843, 3810, 4900, 4933, 4932, 4899
3600, 3812, 3845, 3844, 3811, 4901, 4934, 4933, 4900
3601, 3813, 3846, 3845, 3812, 4902, 4935, 4934, 4901
3602, 3814, 3847, 3846, 3813, 4903, 4936, 4935, 4902
3603, 3815, 3848, 3847, 3814, 4904, 4937, 4936, 4903
3604, 3816, 3849, 3848, 3815, 4905, 4938, 4937, 4904
3605, 3817, 3850, 3849, 3816, 4906, 4939, 4938, 4905
3606, 3818, 3851, 3850, 3817, 4907, 4940, 4939, 4906
3607, 3819, 3852, 3851, 3818, 4908, 4941, 4940, 4907
3608, 3820, 3853, 3852, 3819, 4909, 4942, 4941, 4908
3609, 3821, 3854, 3853, 3820, 4910, 4943, 4942, 4909
3610, 3822, 3855, 3854, 3821, 4911, 4944, 4943, 4910
3611, 3823, 3856, 3855, 3822, 4912, 4945, 4944, 4911
3612, 3824, 3857, 3856, 3823, 4913, 4946, 4945, 4912
3613, 3825, 3858, 3857, 3824, 4914, 4947, 4946, 4913
3614, 3826, 3859, 3858, 3825, 4915, 4948, 4947, 4914
3615, 3827, 3860, 3859, 3826, 4916, 4949, 4948, 4915
3616, 3828, 3861, 3860, 3827, 4917, 4950, 4949, 4916
3617, 3830, 3863, 3862, 3829, 4919, 4952, 4951, 4918
3618, 3831, 3864, 3863, 3830, 4920, 4953, 4952, 4919
3619, 3832, 3865, 3864, 3831, 4921, 4954, 4953, 4920
3620, 3833, 3866, 3865, 3832, 4922, 4955, 4954, 4921
3621, 3834, 3867, 3866, 3833, 4923, 4956, 4955, 4922
3622, 3835, 3868, 3867, 3834, 4924, 4957, 4956, 4923
3623, 3836, 3869, 3868, 3835, 4925, 4958, 4957, 4924
3624, 3837, 3870, 3869, 3836, 4926, 4959, 4958, 4925
3625, 3838, 3871, 3870, 3837, 4927, 4960, 4959, 4926
3626, 3839, 3872, 3871, 3838, 4928, 4961, 4960, 4927
3627, 3840, 3873, 3872, 3839, 4929, 4962, 4961, 4928
3628, 3841, 3874, 3873, 3840, 4930, 4963, 4962, 4929
3629, 3842, 3875, 3874, 3841, 4931, 4964, 4963, 4930
3630, 3843, 3876, 3875, 3842, 4932, 4965, 4964, 4931
3631, 3844, 3877, 3876, 3843, 4933, 4966, 4965, 4932
3632, 3845, 3878, 3877, 3844, 4934, 4967, 4966, 4933
3633, 3846, 3879, 3878, 3845, 4935, 4968, 4967, 4934
3634, 3847, 3880, 3879, 3846, 4936, 4969, 4968, 4935
3635, 3848, 3881, 3880, 3847, 4937, 4970, 4969, 4936
3636, 3849, 3882, 3881, 3848, 4938, 4971, 4970, 4937
3637, 3850, 3883, 3882, 3849, 4939, 4972, 4971, 4938
3638, 3851, 3884, 3883, 3850, 4940, 4973, 4972, 4939
3639, 3852, 3885, 3884, 3851, 4941, 4974, 4973, 4940
3640, 3853, 3886, 3885, 3852, 4942, 4975, 4974, 4941
3641, 3854, 3887, 3886, 3853, 4943, 4976, 4975, 4942
3642, 3855, 3888, 3887, 3854, 4944, 4977, 4976, 4943
3643, 3856, 3889, 3888, 3855, 4945, 4978, 4977, 4944
3644, 3857, 3890, 3889, 3856, 4946, 4979, 4978, 4945
3645, 3858, 3891, 3890, 3857, 4947, 4980, 4979, 4946
3646, 3859, 3892, 3891, 3858, 4948, 4981, 4980, 4947
3647, 3860, 3893, 3892, 3859, 4949, 4982, 4981, 4948
3648, 3861, 3894, 3893, 3860, 4950, 4983, 4982, 4949
3649, 3863, 3896, 3895, 3862, 4952, 4985, 4984, 4951
3650, 3864, 3897, 3896, 3863, 4953, 4986, 4985, 4952
3651, 3865, 3898, 3897, 3864, 4954, 4987, 4986, 4953
3652, 3866, 3899, 3898, 3865, 4955, 4988, 4987, 4954
3653, 3867, 3900, 3899, 3866, 4956, 4989, 4988, 4955
3654, 3868, 3901, 3900, 3867, 4957, 4990, 4989, 4956
3655, 3869, 3902, 3901, 3868, 4958, 4991, 4990, 4957
3656, 3870, 3903, 3902, 3869, 4959, 4992, 4991, 4958
3657, 3871, 3904, 3903, 3870, 4960, 4993, 4992, 4959
3658, 3872, 3905, 3904, 3871, 4961, 4994, 4993, 4960
3659, 3873, 3906, 3905, 3872, 4962, 4995, 4994, 4961
3660, 3874, 3907, 3906, 3873, 4963, 4996, 4995, 4962
3661, 3875, 3908, 3907, 3874, 4964, 4997, 4996, 4963
3662, 3876, 3909, 3908, 3875, 4965, 4998, 4997, 4964
3663, 3877, 3910, 3909, 3876, 4966, 4999, 4998, 4965
3664, 3878, 3911, 3910, 3877, 4967, 5000, 4999, 4966
3665, 3879, 3912, 3911, 3878, 4968, 5001, 5000, 4967
3666, 3880, 3913, 3912, 3879, 4969, 5002, 5001, 4968
3667, 3881, 3914, 3913, 3880, 4970, 5003, 5002, 4969
3668, 3882, 3915, 3914, 3881, 4971, 5004, 5003, 4970
3669, 3883, 3916, 3915, 3882, 4972, 5005, 5004, 4971
3670, 3884, 3917, 3916, 3883, 4973, 5006, 5005, 4972
3671, 3885, 3918, 3917, 3884, 4974, 5007, 5006, 4973
3672, 3886, 3919, 3918, 3885, 4975, 5008, 5007, 4974
3673, 3887, 3920, 3919, 3886, 4976, 5009, 5008, 4975
3674, 3888, 3921, 3920, 3887, 4977, 5010, 5009, 4976
3675, 3889, 3922, 3921, 3888, 4978, 5011, 5010, 4977
3676, 3890, 3923, 3922, 3889, 4979, 5012, 5011, 4978
3677, 3891, 3924, 3923, 3890, 4980, 5013, 5012, 4979
3678, 3892, 3925, 3924, 3891, 4981, 5014, 5013, 4980
3679, 3893, 3926, 3925, 3892, 4982, 5015, 5014, 4981
3680, 3894, 3927, 3926, 3893, 4983, 5016, 5015, 4982
3681, 3896, 3929, 3928, 3895, 4985, 5018, 5017, 4984
3682, 3897, 3930, 3929, 3896, 4986, 5019, 5018, 4985
3683, 3898, 3931, 3930, 3897, 4987, 5020, 5019, 4986
3684, 3899, 3932, 3931, 3898, 4988, 5021, 5020, 4987
3685, 3900, 3933, 3932, 3899, 4989, 5022, 5021, 4988
3686, 3901, 3934, 3933, 3900, 4990, 5023, 5022, 4989
3687, 3902, 3935, 3934, 3901, 4991, 5024, 5023, 4990
3688, 3903, 3936, 3935, 3902, 4992, 5025, 5024, 4991
3689, 3904, 3937, 3936, 3903, 4993, 5026, 5025, 4992
3690, 3905, 3938, 3937, 3904, 4994, 5027, 5026, 4993
3691, 3906, 3939, 3938, 3905, 4995, 5028, 5027, 4994
3692, 3907, 3940, 3939, 3906, 4996, 5029, 5028, 4995
3693, 3908, 3941, 3940, 3907, 4997, 5030, 5029, 4996
3694, 3909, 3942, 3941, 3908, 4998, 5031, 5030, 4997
3695, 3910, 3943, 3942, 3909, 4999, 5032, 5031, 4998
3696, 3911, 3944, 3943, 3910, 5000, 5033, 5032, 4999
3697, 3912, 3945, 3944, 3911, 5001, 5034, 5033, 5000
3698, 3913, 3946, 3945, 3912, 5002, 5035, 5034, 5001
3699, 3914, 3947, 3946, 3913, 5003, 5036, 5035, 5002
3700, 3915, 3948, 3947, 3914, 5004, 5037, 5036, 5003
3701, 3916, 3949, 3948, 3915, 5005, 5038, 5037, 5004
3702, 3917, 3950, 3949, 3916, 5006, 5039, 5038, 5005
3703, 3918, 3951, 3950, 3917, 5007, 5040, 5039, 5006
3704, 3919, 3952, 3951, 3918, 5008, 5041, 5040, 5007
3705, 3920, 3953, 3952, 3919, 5009, 5042, 5041, 5008
3706, 3921, 3954, 3953, 3920, 5010, 5043, 5042, 5009
3707, 3922, 3955, 3954, 3921, 5011, 5044, 5043, 5010
3708, 3923, 3956, 3955, 3922, 5012, 5045, 5044, 5011
3709, 3924, 3957, 3956, 3923, 5013, 5046, 5045, 5012
3710, 3925, 3958, 3957, 3924, 5014, 5047, 5046, 5013
3711, 3926, 3959, 3958, 3925, 5015, 5048, 5047, 5014
3712, 3927, 3960, 3959, 3926, 5016, 5049, 5048, 5015
3713, 3929, 3962, 3961, 3928, 5018, 5051, 5050, 5017
3714, 3930, 3963, 3962, 3929, 5019, 5052, 5051, 5018
3715, 3931, 3964, 3963, 3930, 5020, 5053, 5052, 5019
3716, 3932, 3965, 3964, 3931, 5021, 5054, 5053, 5020
3717, 3933, 3966, 3965, 3932, 5022, 5055, 5054, 5021
3718, 3934, 3967, 3966, 3933, 5023, 5056, 5055, 5022
3719, 3935, 3968, 3967, 3934, 5024, 5057, 5056, 5023
3720, 3936, 3969, 3968, 3935, 5025, 5058, 5057, 5024
3721, 3937, 3970, 3969, 3936, 5026, 5059, 5058, 5025
3722, 3938, 3971, 3970, 3937, 5027, 5060, 5059, 5026
3723, 3939, 3972, 3971, 3938, 5028, 5061, 5060, 5027
3724, 3940, 3973, 3972, 3939, 5029, 5062, 5061, 5028
3725, 3941, 3974, 3973, 3940, 5030, 5063, 5062, 5029
3726, 3942, 3975, 3974, 3941, 5031, 5064, 5063, 5030
3727, 3943, 3976, 3975, 3942, 5032, 5065, 5064, 5031
3728, 3944, 3977, 3976, 3943, 5033, 5066, 5065, 5032
3729, 3945, 3978, 3977, 3944, 5034, 5067, 5066, 5033
3730, 3946, 3979, 3978, 3945, 5035, 5068, 5067, 5034
3731, 3947, 3980, 3979, 3946, 5036, 5069, 5068, 5035
3732, 3948, 3981, 3980, 3947, 5037, 5070, 5069, 5036
3733, 3949, 3982, 3981, 3948, 5038, 5071, 5070, 5037
3734, 3950, 3983, 3982, 3949, 5039, 5072, 5071, 5038
3735, 3951, 3984, 3983, 3950, 5040, 5073, 5072, 5039
3736, 3952, 3985, 3984, 3951, 5041, 5074, 5073, 5040
3737, 3953, 3986, 3985, 3952, 5042, 5075, 5074, 5041
3738, 3954, 3987, 3986, 3953, 5043, 5076, 5075, 5042
3739, 3955, 3988, 3987, 3954, 5044, 5077, 5076, 5043
3740, 3956, 3989, 3988, 3955, 5045, 5078, 5077, 5044
3741, 3957, 3990, 3989, 3956, 5046, 5079, 5078, 5045
3742, 3958, 3991, 3990, 3957, 5047, 5080, 5079, 5046
3743, 3959, 3992, 3991, 3958, 5048, 5081, 5080, 5047
3744, 3960, 3993, 3992, 3959, 5049, 5082, 5081, 5048
3745, 3962, 3995, 3994, 3961, 5051, 5084, 5083, 5050
3746, 3963, 3996, 3995, 3962, 5052, 5085, 5084, 5051
3747, 3964, 3997, 3996, 3963, 5053, 5086, 5085, 5052
3748, 3965, 3998, 3997, 3964, 5054, 5087, 5086, 5053
3749, 3966, 3999, 3998, 3965, 5055, 5088, 5087, 5054
3750, 3967, 4000, 3999, 3966, 5056, 5089, 5088, 5055
3751, 3968, 4001, 4000, 3967, 5057, 5090, 5089, 5056
3752, 3969, 4002, 4001, 3968, 5058, 5091, 5090, 5057
3753, 3970, 4003, 4002, 3969, 5059, 5092, 5091, 5058
3754, 3971, 4004, 4003, 3970, 5060, 5093, 5092, 5059
3755, 3972, 4005, 4004, 3971, 5061, 5094, 5093, 5060
3756, 3973, 4006, 4005, 3972, 5062, 5095, 5094, 5061
3757, 3974, 4007, 4006, 3973, 5063, 5096, 5095, 5062
3758, 3975, 4008, 4007, 3974, 5064, 5097, 5096, 5063
3759, 3976, 4009, 4008, 3975, 5065, 5098, 5097, 5064
3760, 3977, 4010, 4009, 3976, 5066, 5099, 5098, 5065
3761, 3978, 4011, 4010, 3977, 5067, 5100, 5099, 5066
3762, 3979, 4012, 4011, 3978, 5068, 5101, 5100, 5067
3763, 3980, 4013, 4012, 3979, 5069, 5102, 5101, 5068
3764, 3981, 4014, 4013, 3980, 5070, 5103, 5102, 5069
3765, 3982, 4015, 4014, 3981, 5071, 5104, 5103, 5070
3766, 3983, 4016, 4015, 3982, 5072, 5105, 5104, 5071
3767, 3984, 4017, 4016, 3983, 5073, 5106, 5105, 5072
3768, 3985, 4018, 4017, 3984, 5074, 5107, 5106, 5073
3769, 3986, 4019, 4018, 3985, 5075, 5108, 5107, 5074
3770, 3987, 4020, 4019, 3986, 5076, 5109, 5108, 5075
3771, 3988, 4021, 4020, 3987, 5077, 5110, 5109, 5076
3772, 3989, 4022, 4021, 3988, 5078, 5111, 5110, 5077
3773, 3990, 4023, 4022, 3989, 5079, 5112, 5111, 5078
3774, 3991, 4024, 4023, 3990, 5080, 5113, 5112, 5079
3775, 3992, 4025, 4024, 3991, 5081, 5114, 5113, 5080
3776, 3993, 4026, 4025, 3992, 5082, 5115, 5114, 5081
3777, 3995, 4028, 4027, 3994, 5084, 5117, 5116, 5083
3778, 3996, 4029, 4028, 3995, 5085, 5118, 5117, 5084
3779, 3997, 4030, 4029, 3996, 5086, 5119, 5118, 5085
3780, 3998, 4031, 4030, 3997, 5087, 5120, 5119, 5086
3781, 3999, 4032, 4031, 3998, 5088, 5121, 5120, 5087
3782, 4000, 4033, 4032, 3999, 5089, 5122, 5121, 5088
3783, 4001, 4034, 4033, 4000, 5090, 5123, 5122, 5089
3784, 4002, 4035, 4034, 4001, 5091, 5124, 5123, 5090
3785, 4003, 4036, 4035, 4002, 5092, 5125, 5124, 5091
3786, 4004, 4037, 4036, 4003, 5093, 5126, 5125, 5092
3787, 4005, 4038, 4037, 4004, 5094, 5127, 5126, 5093
3788, 4006, 4039, 4038, 4005, 5095, 5128, 5127, 5094
3789, 4007, 4040, 4039, 4006, 5096, 5129, 5128, 5095
3790, 4008, 4041, 4040, 4007, 5097, 5130, 5129, 5096
3791, 4009, 4042, 4041, 4008, 5098, 5131, 5130, 5097
3792, 4010, 4043, 4042, 4009, 5099, 5132, 5131, 5098
3793, 4011, 4044, 4043, 4010, 5100, 5133, 5132, 5099
3794, 4012, 4045, 4044, 4011, 5101, 5134, 5133, 5100
3795, 4013, 4046, 4045, 4012, 5102, 5135, 5134, 5101
3796, 4014, 4047, 4046, 4013, 5103, 5136, 5135, 5102
3797, 4015, 4048, 4047, 4014, 5104, 5137, 5136, 5103
3798, 4016, 4049, 4048, 4015, 5105, 5138, 5137, 5104
3799, 4017, 4050, 4049, 4016, 5106, 5139, 5138, 5105
3800, 4018, 4051, 4050, 4017, 5107, 5140, 5139, 5106
3801, 4019, 4052, 4051, 4018, 5108, 5141, 5140, 5107
3802, 4020, 4053, 4052, 4019, 5109, 5142, 5141, 5108
3803, 4021, 4054, 4053, 4020, 5110, 5143, 5142, 5109
3804, 4022, 4055, 4054, 4021, 5111, 5144, 5143, 5110
3805, 4023, 4056, 4055, 4022, 5112, 5145, 5144, 5111
3806, 4024, 4057, 4056, 4023, 5113, 5146, 5145, 5112
3807, 4025, 4058, 4057, 4024, 5114, 5147, 5146, 5113
3808, 4026, 4059, 4058, 4025, 5115, 5148, 5147, 5114
3809, 4028, 4061, 4060, 4027, 5117, 5150, 5149, 5116
3810, 4029, 4062, 4061, 4028, 5118, 5151, 5150, 5117
3811, 4030, 4063, 4062, 4029, 5119, 5152, 5151, 5118
3812, 4031, 4064, 4063, 4030, 5120, 5153, 5152, 5119
3813, 4032, 4065, 4064, 4031, 5121, 5154, 5153, 5120
3814, 4033, 4066, 4065, 4032, 5122, 5155, 5154, 5121
3815, 4034, 4067, 4066, 4033, 5123, 5156, 5155, 5122
3816, 4035, 4068, 4067, 4034, 5124, 5157, 5156, 5123
3817, 4036, 4069, 4068, 4035, 5125, 5158, 5157, 5124
3818, 4037, 4070, 4069, 4036, 5126, 5159, 5158, 5125
3819, 4038, 4071, 4070, 4037, 5127, 5160, 5159, 5126
3820, 4039, 4072, 4071, 4038, 5128, 5161, 5160, 5127
3821, 4040, 4073, 4072, 4039, 5129, 5162, 5161, 5128
3822, 4041, 4074, 4073, 4040, 5130, 5163, 5162, 5129
3823, 4042, 4075, 4074, 4041, 5131, 5164, 5163, 5130
3824, 4043, 4076, 4075, 4042, 5132, 5165, 5164, 5131
3825, 4044, 4077, 4076, 4043, 5133, 5166, 5165, 5132
3826, 4045, 4078, 4077, 4044, 5134, 5167, 5166, 5133
3827, 4046, 4079, 4078, 4045, 5135, 5168, 5167, 5134
3828, 4047, 4080, 4079, 4046, 5136, 5169, 5168, 5135
3829, 4048, 4081, 4080, 4047, 5137, 5170, 5169, 5136
3830, 4049, 4082, 4081, 4048, 5138, 5171, 5170, 5137
3831, 4050, 4083, 4082, 4049, 5139, 5172, 5171, 5138
3832, 4051, 4084, 4083, 4050, 5140, 5173, 5172, 5139
3833, 4052, 4085, 4084, 4051, 5141, 5174, 5173, 5140
3834, 4053, 4086, 4085, 4052, 5142, 5175, 5174, 5141
3835, 4054, 4087, 4086, 4053, 5143, 5176, 5175, 5142
3836, 4055, 4088, 4087, 4054, 5144, 5177, 5176, 5143
3837, 4056, 4089, 4088, 4055, 5145, 5178, 5177, 5144
3838, 4057, 4090, 4089, 4056, 5146, 5179, 5178, 5145
3839, 4058, 4091, 4090, 4057, 5147, 5180, 5179, 5146
3840, 4059, 4092, 4091, 4058, 5148, 5181, 5180, 5147
3841, 4061, 4094, 4093, 4060, 5150, 5183, 5182, 5149
3842, 4062, 4095, 4094, 4061, 5151, 5184, 5183, 5150
3843, 4063, 4096, 4095, 4062, 5152, 5185, 5184, 5151
3844, 4064, 4097, 4096, 4063, 5153, 5186, 5185, 5152
3845, 4065, 4098, 4097, 4064, 5154, 5187, 5186, 5153
3846, 4066, 4099, 4098, 4065, 5155, 5188, 5187, 5154
3847, 4067, 4100, 4099, 4066, 5156, 5189, 5188, 5155
3848, 4068, 4101, 4100, 4067, 5157, 5190, 5189, 5156
3849, 4069, 4102, 4101, 4068, 5158, 5191, 5190, 5157
3850, 4070, 4103, 4102, 4069, 5159, 5192, 5191, 5158
3851, 4071, 4104, 4103, 4070, 5160, 5193, 5192, 5159
3852, 4072, 4105, 4104, 4071, 5161, 5194, 5193, 5160
3853, 4073, 4106, 4105, 4072, 5162, 5195, 5194, 5161
3854, 4074, 4107, 4106, 4073, 5163, 5196, 5195, 5162
3855, 4075, 4108, 4107, 4074, 5164, 5197, 5196, 5163
3856, 4076, 4109, 4108, 4075, 5165, 5198, 5197, 5164
3857, 4077, 4110, 4109, 4076, 5166, 5199, 5198, 5165
3858, 4078, 4111, 4110, 4077, 5167, 5200, 5199, 5166
3859, 4079, 4112, 4111, 4078, 5168, 5201, 5200, 5167
3860, 4080, 4113, 4112, 4079, 5169, 5202, 5201, 5168
3861, 4081, 4114, 4113, 4080, 5170, 5203, 5202, 5169
3862, 4082, 4115, 4114, 4081, 5171, 5204, 5203, 5170
3863, 4083, 4116, 4115, 4082, 5172, 5205, 5204, 5171
3864, 4084, 4117, 4116, 4083, 5173, 5206, 5205, 5172
3865, 4085, 4118, 4117, 4084, 5174, 5207, 5206, 5173
3866, 4086, 4119, 4118, 4085, 5175, 5208, 5207, 5174
3867, 4087, 4120, 4119, 4086, 5176, 5209, 5208, 5175
3868, 4088, 4121, 4120, 4087, 5177, 5210, 5209, 5176
3869, 4089, 4122, 4121, 4088, 5178, 5211, 5210, 5177
3870, 4090, 4123, 4122, 4089, 5179, 5212, 5211, 5178
3871, 4091, 4124, 4123, 4090, 5180, 5213, 5212, 5179
3872, 4092, 4125, 4124, 4091, 5181, 5214, 5213, 5180
3873, 4094, 4127, 4126, 4093, 5183, 5216, 5215, 5182
3874, 4095, 4128, 4127, 4094, 5184, 5217, 5216, 5183
3875, 4096, 4129, 4128, 4095, 5185, 5218, 5217, 5184
3876, 4097, 4130, 4129, 4096, 5186, 5219, 5218, 5185
3877, 4098, 4131, 4130, 4097, 5187, 5220, 5219, 5186
3878, 4099, 4132, 4131, 4098, 5188, 5221, 5220, 5187
3879, 4100, 4133, 4132, 4099, 5189, 5222, 5221, 5188
3880, 4101, 4134, 4133, 4100, 5190, 5223, 5222, 5189
3881, 4102, 4135, 4134, 4101, 5191, 5224, 5223, 5190
3882, 4103, 4136, 4135, 4102, 5192, 5225, 5224, 5191
3883, 4104, 4137, 4136, 4103, 5193, 5226, 5225, 5192
3884, 4105, 4138, 4137, 4104, 5194, 5227, 5226, 5193
3885, 4106, 4139, 4138, 4105, 5195, 5228, 5227, 5194
3886, 4107, 4140, 4139, 4106, 5196, 5229, 5228, 5195
3887, 4108, 4141, 4140, 4107, 5197, 5230, 5229, 5196
3888, 4109, 4142, 4141, 4108, 5198, 5231, 5230, 5197
3889, 4110, 4143, 4142, 4109, 5199, 5232, 5231, 5198
3890, 4111, 4144, 4143, 4110, 5200, 5233, 5232, 5199
3891, 4112, 4145, 4144, 4111, 5201, 5234, 5233, 5200
3892, 4113, 4146, 4145, 4112, 5202, 5235, 5234, 5201
3893, 4114, 4147, 4146, 4113, 5203, 5236, 5235, 5202
3894, 4115, 4148, 4147, 4114, 5204, 5237, 5236, 5203
3895, 4116, 4149, 4148, 4115, 5205, 5238, 5237, 5204
3896, 4117, 4150, 4149, 4116, 5206, 5239, 5238, 5205
3897, 4118, 4151, 4150, 4117, 5207, 5240, 5239, 5206
3898, 4119, 4152, 4151, 4118, 5208, 5241, 5240, 5207
3899, 4120, 4153, 4152, 4119, 5209, 5242, 5241, 5208
3900, 4121, 4154, 4153, 4120, 5210, 5243, 5242, 5209
3901, 4122, 4155, 4154, 4121, 5211, 5244, 5243, 5210
3902, 4123, 4156, 4155, 4122, 5212, 5245, 5244, 5211
3903, 4124, 4157, 4156, 4123, 5213, 5246, 5245, 5212
3904, 4125, 4158, 4157, 4124, 5214, 5247, 5246, 5213
3905, 4127, 4160, 4159, 4126, 5216, 5249, 5248, 5215
3906, 4128, 4161, 4160, 4127, 5217, 5250, 5249, 5216
3907, 4129, 4162, 4161, 4128, 5218, 5251, 5250, 5217
3908, 4130, 4163, 4162, 4129, 5219, 5252, 5251, 5218
3909, 4131, 4164, 4163, 4130, 5220, 5253, 5252, 5219
3910, 4132, 4165, 4164, 4131, 5221, 5254, 5253, 5220
3911, 4133, 4166, 4165, 4132, 5222, 5255, 5254, 5221
3912, 4134, 4167, 4166, 4133, 5223, 5256, 5255, 5222
3913, 4135, 4168, 4167, 4134, 5224, 5257, 5256, 5223
3914, 4136, 4169, 4168, 4135, 5225, 5258, 5257, 5224
3915, 4137, 4170, 4169, 4136, 5226, 5259, 5258, 5225
3916, 4138, 4171, 4170, 4137, 5227, 5260, 5259, 5226
3917, 4139, 4172, 4171, 4138, 5228, 5261, 5260, 5227
3918, 4140, 4173, 4172, 4139, 5229, 5262, 5261, 5228
3919, 4141, 4174, 4173, 4140, 5230, 5263, 5262, 5229
3920, 4142, 4175, 4174, 4141, 5231, 5264, 5263, 5230
3921, 4143, 4176, 4175, 4142, 5232, 5265, 5264, 5231
3922, 4144, 4177, 4176, 4143, 5233, 5266, 5265, 5232
3923, 4145, 4178, 4177, 4144, 5234, 5267, 5266, 5233
3924, 4146, 4179, 4178, 4145, 5235, 5268, 5267, 5234
3925, 4147, 4180, 4179, 4146, 5236, 5269, 5268, 5235
3926, 4148, 4181, 4180, 4147, 5237, 5270, 5269, 5236
3927, 4149, 4182, 4181, 4148, 5238, 5271, 5270, 5237
3928, 4150, 4183, 4182, 4149, 5239, 5272, 5271, 5238
3929, 4151, 4184, 4183, 4150, 5240, 5273, 5272, 5239
3930, 4152, 4185, 4184, 4151, 5241, 5274, 5273, 5240
3931, 4153, 4186, 4185, 4152, 5242, 5275, 5274, 5241
3932, 4154, 4187, 4186, 4153, 5243, 5276, 5275, 5242
3933, 4155, 4188, 4187, 4154, 5244, 5277, 5276, 5243
3934, 4156, 4189, 4188, 4155, 5245, 5278, 5277, 5244
3935, 4157, 4190, 4189, 4156, 5246, 5279, 5278, 5245
3936, 4158, 4191, 4190, 4157, 5247, 5280, 5279, 5246
3937, 4160, 4193, 4192, 4159, 5249, 5282, 5281, 5248
3938, 4161, 4194, 4193, 4160, 5250, 5283, 5282, 5249
3939, 4162, 4195, 4194, 4161, 5251, 5284, 5283, 5250
3940, 4163, 4196, 4195, 4162, 5252, 5285, 5284, 5251
3941, 4164, 4197, 4196, 4163, 5253, 5286, 5285, 5252
3942, 4165, 4198, 4197, 4164, 5254, 5287, 5286, 5253
3943, 4166, 4199, 4198, 4165, 5255, 5288, 5287, 5254
3944, 4167, 4200, 4199, 4166, 5256, 5289, 5288, 5255
3945, 4168, 4201, 4200, 4167, 5257, 5290, 5289, 5256
3946, 4169, 4202, 4201, 4168, 5258, 5291, 5290, 5257
3947, 4170, 4203, 4202, 4169, 5259, 5292, 5291, 5258
3948, 4171, 4204, 4203, 4170, 5260, 5293, 5292, 5259
3949, 4172, 4205, 4204, 4171, 5261, 5294, 5293, 5260
3950, 4173, 4206, 4205, 4172, 5262, 5295, 5294, 5261
3951, 4174, 4207, 4206, 4173, 5263, 5296, 5295, 5262
3952, 4175, 4208, 4207, 4174, 5264, 5297, 5296, 5263
3953, 4176, 4209, 4208, 4175, 5265, 5298, 5297, 5264
3954, 4177, 4210, 4209, 4176, 5266, 5299, 5298, 5265
3955, 4178, 4211, 4210, 4177, 5267, 5300, 5299, 5266
3956, 4179, 4212, 4211, 4178, 5268, 5301, 5300, 5267
3957, 4180, 4213, 4212, 4179, 5269, 5302, 5301, 5268
3958, 4181, 4214, 4213, 4180, 5270, 5303, 5302, 5269
3959, 4182, 4215, 4214, 4181, 5271, 5304, 5303, 5270
3960, 4183, 4216, 4215, 4182, 5272, 5305, 5304, 5271
3961, 4184, 4217, 4216, 4183, 5273, 5306, 5305, 5272
3962, 4185, 4218, 4217, 4184, 5274, 5307, 5306, 5273
3963, 4186, 4219, 4218, 4185, 5275, 5308, 5307, 5274
3964, 4187, 4220, 4219, 4186, 5276, 5309, 5308, 5275
3965, 4188, 4221, 4220, 4187, 5277, 5310, 5309, 5276
3966, 4189, 4222, 4221, 4188, 5278, 5311, 5310, 5277
3967, 4190, 4223, 4222, 4189, 5279, 5312, 5311, 5278
3968, 4191, 4224, 4223, 4190, 5280, 5313, 5312, 5279
3969, 4193, 4226, 4225, 4192, 5282, 5315, 5314, 5281
3970, 4194, 4227, 4226, 4193, 5283, 5316, 5315, 5282
3971, 4195, 4228, 4227, 4194, 5284, 5317, 5316, 5283
3972, 4196, 4229, 4228, 4195, 5285, 5318, 5317, 5284
3973, 4197, 4230, 4229, 4196, 5286, 5319, 5318, 5285
3974, 4198, 4231, 4230, 4197, 5287, 5320, 5319, 5286
3975, 4199, 4232, 4231, 4198, 5288, 5321, 5320, 5287
3976, 4200, 4233, 4232, 4199, 5289, 5322, 5321, 5288
3977, 4201, 4234, 4233, 4200, 5290, 5323, 5322, 5289
3978, 4202, 4235, 4234, 4201, 5291, 5324, 5323, 5290
3979, 4203, 4236, 4235, 4202, 5292, 5325, 5324, 5291
3980, 4204, 4237, 4236, 4203, 5293, 5326, 5325, 5292
3981, 4205, 4238, 4237, 4204, 5294, 5327, 5326, 5293
3982, 4206, 4239, 4238, 4205, 5295, 5328, 5327, 5294
3983, 4207, 4240, 4239, 4206, 5296, 5329, 5328, 5295
3984, 4208, 4241, 4240, 4207, 5297, 5330, 5329, 5296
3985, 4209, 4242, 4241, 4208, 5298, 5331, 5330, 5297
3986, 4210, 4243, 4242, 4209, 5299, 5332, 5331, 5298
3987, 4211, 4244, 4243, 4210, 5300, 5333, 5332, 5299
3988, 4212, 4245, 4244, 4211, 5301, 5334, 5333, 5300
3989, 4213, 4246, 4245, 4212, 5302, 5335, 5334, 5301
3990, 4214, 4247, 4246, 4213, 5303, 5336, 5335, 5302
3991, 4215, 4248, 4247, 4214, 5304, 5337, 5336, 5303
3992, 4216, 4249, 4248, 4215, 5305, 5338, 5337, 5304
3993, 4217, 4250, 4249, 4216, 5306, 5339, 5338, 5305
3994, 4218, 4251, 4250, 4217, 5307, 5340, 5339, 5306
3995, 4219, 4252, 4251, 4218, 5308, 5341, 5340, 5307
3996, 4220, 4253, 4252, 4219, 5309, 5342, 5341, 5308
3997, 4221, 4254, 4253, 4220, 5310, 5343, 5342, 5309
3998, 4222, 4255, 4254, 4221, 5311, 5344, 5343, 5310
3999, 4223, 4256, 4255, 4222, 5312, 5345, 5344, 5311
4000, 4224, 4257, 4256, 4223, 5313, 5346, 5345, 5312
4001, 4226, 4259, 4258, 4225, 5315, 5348, 5347, 5314
4002, 4227, 4260, 4259, 4226, 5316, 5349, 5348, 5315
4003, 4228, 4261, 4260, 4227, 5317, 5350, 5349, 5316
4004, 4229, 4262, 4261, 4228, 5318, 5351, 5350, 5317
4005, 4230, 4263, 4262, 4229, 5319, 5352, 5351, 5318
4006, 4231, 4264, 4263, 4230, 5320, 5353, 5352, 5319
4007, 4232, 4265, 4264, 4231, 5321, 5354, 5353, 5320
4008, 4233, 4266, 4265, 4232, 5322, 5355, 5354, 5321
4009, 4234, 4267, 4266, 4233, 5323, 5356, 5355, 5322
4010, 4235, 4268, 4267, 4234, 5324, 5357, 5356, 5323
4011, 4236, 4269, 4268, 4235, 5325, 5358, 5357, 5324
4012, 4237, 4270, 4269, 4236, 5326, 5359, 5358, 5325
4013, 4238, 4271, 4270, 4237, 5327, 5360, 5359, 5326
4014, 4239, 4272, 4271, 4238, 5328, 5361, 5360, 5327
4015, 4240, 4273, 4272, 4239, 5329, 5362, 5361, 5328
4016, 4241, 4274, 4273, 4240, 5330, 5363, 5362, 5329
4017, 4242, 4275, 4274, 4241, 5331, 5364, 5363, 5330
4018, 4243, 4276, 4275, 4242, 5332, 5365, 5364, 5331
4019, 4244, 4277, 4276, 4243, 5333, 5366, 5365, 5332
4020, 4245, 4278, 4277, 4244, 5334, 5367, 5366, 5333
4021, 4246, 4279, 4278, 4245, 5335, 5368, 5367, 5334
4022, 4247, 4280, 4279, 4246, 5336, 5369, 5368, 5335
4023, 4248, 4281, 4280, 4247, 5337, 5370, 5369, 5336
4024, 4249, 4282, 4281, 4248, 5338, 5371, 5370, 5337
4025, 4250, 4283, 4282, 4249, 5339, 5372, 5371, 5338
4026, 4251, 4284, 4283, 4250, 5340, 5373, 5372, 5339
4027, 4252, 4285, 4284, 4251, 5341, 5374, 5373, 5340
4028, 4253, 4286, 4285, 4252, 5342, 5375, 5374, 5341
4029, 4254, 4287, 4286, 4253, 5343, 5376, 5375, 5342
4030, 4255, 4288, 4287, 4254, 5344, 5377, 5376, 5343
4031, 4256, 4289, 4288, 4255, 5345, 5378, 5377, 5344
4032, 4257, 4290, 4289, 4256, 5346, 5379, 5378, 5345
4033, 4259, 4292, 4291, 4258, 5348, 5381, 5380, 5347
4034, 4260, 4293, 4292, 4259, 5349, 5382, 5381, 5348
4035, 4261, 4294, 4293, 4260, 5350, 5383, 5382, 5349
4036, 4262, 4295, 4294, 4261, 5351, 5384, 5383, 5350
4037, 4263, 4296, 4295, 4262, 5352, 5385, 5384, 5351
4038, 4264, 4297, 4296, 4263, 5353, 5386, 5385, 5352
4039, 4265, 4298, 4297, 4264, 5354, 5387, 5386, 5353
4040, 4266, 4299, 4298, 4265, 5355, 5388, 5387, 5354
4041, 4267, 4300, 4299, 4266, 5356, 5389, 5388, 5355
4042, 4268, 4301, 4300, 4267, 5357, 5390, 5389, 5356
4043, 4269, 4302, 4301, 4268, 5358, 5391, 5390, 5357
4044, 4270, 4303, 4302, 4269, 5359, 5392, 5391, 5358
4045, 4271, 4304, 4303, 4270, 5360, 5393, 5392, 5359
4046, 4272, 4305, 4304, 4271, 5361, 5394, 5393, 5360
4047, 4273, 4306, 4305, 4272, 5362, 5395, 5394, 5361
4048, 4274, 4307, 4306, 4273, 5363, 5396, 5395, 5362
4049, 4275, 4308, 4307, 4274, 5364, 5397, 5396, 5363
4050, 4276, 4309, 4308, 4275, 5365, 5398, 5397, 5364
4051, 4277, 4310, 4309, 4276, 5366, 5399, 5398, 5365
4052, 4278, 4311, 4310, 4277, 5367, 5400, 5399, 5366
4053, 4279, 4312, 4311, 4278, 5368, 5401, 5400, 5367
4054, 4280, 4313, 4312, 4279, 5369, 5402, 5401, 5368
4055, 4281, 4314, 4313, 4280, 5370, 5403, 5402, 5369
4056, 4282, 4315, 4314, 4281, 5371, 5404, 5403, 5370
4057, 4283, 4316, 4315, 4282, 5372, 5405, 5404, 5371
4058, 4284, 4317, 4316, 4283, 5373, 5406, 5405, 5372
4059, 4285, 4318, 4317, 4284, 5374, 5407, 5406, 5373
4060, 4286, 4319, 4318, 4285, 5375, 5408, 5407, 5374
4061, 4287, 4320, 4319, 4286, 5376, 5409, 5408, 5375
4062, 4288, 4321, 4320, 4287, 5377, 5410, 5409, 5376
4063, 4289, 4322, 4321, 4288, 5378, 5411, 5410, 5377
4064, 4290, 4323, 4322, 4289, 5379, 5412, 5411, 5378
4065, 4292, 4325, 4324, 4291, 5381, 5414, 5413, 5380
4066, 4293, 4326, 4325, 4292, 5382, 5415, 5414, 5381
4067, 4294, 4327, 4326, 4293, 5383, 5416, 5415, 5382
4068, 4295, 4328, 4327, 4294, 5384, 5417, 5416, 5383
4069, 4296, 4329, 4328, 4295, 5385, 5418, 5417, 5384
4070, 4297, 4330, 4329, 4296, 5386, 5419, 5418, 5385
4071, 4298, 4331, 4330, 4297, 5387, 5420, 5419, 5386
4072, 4299, 4332, 4331, 4298, 5388, 5421, 5420, 5387
4073, 4300, 4333, 4332, 4299, 5389, 5422, 5421, 5388
4074, 4301, 4334, 4333, 4300, 5390, 5423, 5422, 5389
4075, 4302, 4335, 4334, 4301, 5391, 5424, 5423, 5390
4076, 4303, 4336, 4335, 4302, 5392, 5425, 5424, 5391
4077, 4304, 4337, 4336, 4303, 5393, 5426, 5425, 5392
4078, 4305, 4338, 4337, 4304, 5394, 5427, 5426, 5393
4079, 4306, 4339, 4338, 4305, 5395, 5428, 5427, 5394
4080, 4307, 4340, 4339, 4306, 5396, 5429, 5428, 5395
4081, 4308, 4341, 4340, 4307, 5397, 5430, 5429, 5396
4082, 4309, 4342, 4341, 4308, 5398, 5431, 5430, 5397
4083, 4310, 4343, 4342, 4309, 5399, 5432, 5431, 5398
4084, 4311, 4344, 4343, 4310, 5400, 5433, 5432, 5399
4085, 4312, 4345, 4344, 4311, 5401, 5434, 5433, 5400
4086, 4313, 4346, 4345, 4312, 5402, 5435, 5434, 5401
4087, 4314, 4347, 4346, 4313, 5403, 5436, 5435, 5402
4088, 4315, 4348, 4347, 4314, 5404, 5437, 5436, 5403
4089, 4316, 4349, 4348, 4315, 5405, 5438, 5437, 5404
4090, 4317, 4350, 4349, 4316, 5406, 5439, 5438, 5405
4091, 4318, 4351, 4350, 4317, 5407, 5440, 5439, 5406
4092, 4319, 4352, 4351, 4318, 5408, 5441, 5440, 5407
4093, 4320, 4353, 4352, 4319, 5409, 5442, 5441, 5408
4094, 4321, 4354, 4353, 4320, 5410, 5443, 5442, 5409
4095, 4322, 4355, 4354, 4321, 5411, 5444, 5443, 5410
4096, 4323, 4356, 4355, 4322, 5412, 5445, 5444, 5411
4097, 4358, 4391, 4390, 4357, 5447, 5480, 5479, 5446
4098, 4359, 4392, 4391, 4358, 5448, 5481, 5480, 5447
4099, 4360, 4393, 4392, 4359, 5449, 5482, 5481, 5448
4100, 4361, 4394, 4393, 4360, 5450, 5483, 5482, 5449
4101, 4362, 4395, 4394, 4361, 5451, 5484, 5483, 5450
4102, 4363, 4396, 4395, 4362, 5452, 5485, 5484, 5451
4103, 4364, 4397, 4396, 4363, 5453, 5486, 5485, 5452
4104, 4365, 4398, 4397, 4364, 5454, 5487, 5486, 5453
4105, 4366, 4399, 4398, 4365, 5455, 5488, 5487, 5454
4106, 4367, 4400, 4399, 4366, 5456, 5489, 5488, 5455
4107, 4368, 4401, 4400, 4367, 5457, 5490, 5489, 5456
4108, 4369, 4402, 4401, 4368, 5458, 5491, 5490, 5457
4109, 4370, 4403, 4402, 4369, 5459, 5492, 5491, 5458
4110, 4371, 4404, 4403, 4370, 5460, 5493, 5492, 5459
4111, 4372, 4405, 4404, 4371, 5461, 5494, 5493, 5460
4112, 4373, 4406, 4405, 4372, 5462, 5495, 5494, 5461
4113, 4374, 4407, 4406, 4373, 5463, 5496, 5495, 5462
4114, 4375, 4408, 4407, 4374, 5464, 5497, 5496, 5463
4115, 4376, 4409, 4408, 4375, 5465, 5498, 5497, 5464
4116, 4377, 4410, 4409, 4376, 5466, 5499, 5498, 5465
4117, 4378, 4411, 4410, 4377, 5467, 5500, 5499, 5466
4118, 4379, 4412, 4411, 4378, 5468, 5501, 5500, 5467
4119, 4380, 4413, 4412, 4379, 5469, 5502, 5501, 5468
4120, 4381, 4414, 4413, 4380, 5470, 5503, 5502, 5469
4121, 4382, 4415, 4414, 4381, 5471, 5504, 5503, 5470
4122, 4383, 4416, 4415, 4382, 5472, 5505, 5504, 5471
4123, 4384, 4417, 4416, 4383, 5473, 5506, 5505, 5472
4124, 4385, 4418, 4417, 4384, 5474, 5507, 5506, 5473
4125, 4386, 4419, 4418, 4385, 5475, 5508, 5507, 5474
4126, 4387, 4420, 4419, 4386, 5476, 5509, 5508, 5475
4127, 4388, 4421, 4420, 4387, 5477, 5510, 5509, 5476
4128, 4389, 4422, 4421, 4388, 5478, 5511, 5510, 5477
4129, 4391, 4424, 4423, 4390, 5480, 5513, 5512, 5479
4130, 4392, 4425, 4424, 4391, 5481, 5514, 5513, 5480
4131, 4393, 4426, 4425, 4392, 5482, 5515, 5514, 5481
4132, 4394, 4427, 4426, 4393, 5483, 5516, 5515, 5482
4133, 4395, 4428, 4427, 4394, 5484, 5517, 5516, 5483
4134, 4396, 4429, 4428, 4395, 5485, 5518, 5517, 5484
4135, 4397, 4430, 4429, 4396, 5486, 5519, 5518, 5485
4136, 4398, 4431, 4430, 4397, 5487, 5520, 5519, 5486
4137, 4399, 4432, 4431, 4398, 5488, 5521, 5520, 5487
4138, 4400, 4433, 4432, 4399, 5489, 5522, 5521, 5488
4139, 4401, 4434, 4433, 4400, 5490, 5523, 5522, 5489
4140, 4402, 4435, 4434, 4401, 5491, 5524, 5523, 5490
4141, 4403, 4436, 4435, 4402, 5492, 5525, 5524, 5491
4142, 4404, 4437, 4436, 4403, 5493, 5526, 5525, 5492
4143, 4405, 4438, 4437, 4404, 5494, 5527, 5526, 5493
4144, 4406, 4439, 4438, 4405, 5495, 5528, 5527, 5494
4145, 4407, 4440, 4439, 4406, 5496, 5529, 5528, 5495
4146, 4408, 4441, 4440, 4407, 5497, 5530, 5529, 5496
4147, 4409, 4442, 4441, 4408, 5498, 5531, 5530, 5497
4148, 4410, 4443, 4442, 4409, 5499, 5532, 5531, 5498
4149, 4411, 4444, 4443, 4410, 5500, 5533, 5532, 5499
4150, 4412, 4445, 4444, 4411, 5501, 5534, 5533, 5500
4151, 4413, 4446, 4445, 4412, 5502, 5535, 5534, 5501
4152, 4414, 4447, 4446, 4413, 5503, 5536, 5535, 5502
4153, 4415, 4448, 4447, 4414, 5504, 5537, 5536, 5503
4154, 4416, 4449, 4448, 4415, 5505, 5538, 5537, 5504
4155, 4417, 4450, 4449, 4416, 5506, 5539, 5538, 5505
4156, 4418, 4451, 4450, 4417, 5507, 5540, 5539, 5506
4157, 4419, 4452, 4451, 4418, 5508, 5541, 5540, 5507
4158, 4420, 4453, 4452, 4419, 5509, 5542, 5541, 5508
4159, 4421, 4454, 4453, 4420, 5510, 5543, 5542, 5509
4160, 4422, 4455, 4454, 4421, 5511, 5544, 5543, 5510
4161, 4424, 4457, 4456, 4423, 5513, 5546, 5545, 5512
4162, 4425, 4458, 4457, 4424, 5514, 5547, 5546, 5513
4163, 4426, 4459, 4458, 4425, 5515, 5548, 5547, 5514
4164, 4427, 4460, 4459, 4426, 5516, 5549, 5548, 5515
4165, 4428, 4461, 4460, 4427, 5517, 5550, 5549, 5516
4166, 4429, 4462, 4461, 4428, 5518, 5551, 5550, 5517
4167, 4430, 4463, 4462, 4429, 5519, 5552, 5551, 5518
4168, 4431, 4464, 4463, 4430, 5520, 5553, 5552, 5519
4169, 4432, 4465, 4464, 4431, 5521, 5554, 5553, 5520
4170, 4433, 4466, 4465, 4432, 5522, 5555, 5554, 5521
4171, 4434, 4467, 4466, 4433, 5523, 5556, 5555, 5522
4172, 4435, 4468, 4467, 4434, 5524, 5557, 5556, 5523
4173, 4436, 4469, 4468, 4435, 5525, 5558, 5557, 5524
4174, 4437, 4470, 4469, 4436, 5526, 5559, 5558, 5525
4175, 4438, 4471, 4470, 4437, 5527, 5560, 5559, 5526
4176, 4439, 4472, 4471, 4438, 5528, 5561, 5560, 5527
4177, 4440, 4473, 4472, 4439, 5529, 5562, 5561, 5528
4178, 4441, 4474, 4473, 4440, 5530, 5563, 5562, 5529
4179, 4442, 4475, 4474, 4441, 5531, 5564, 5563, 5530
4180, 4443, 4476, 4475, 4442, 5532, 5565, 5564, 5531
4181, 4444, 4477, 4476, 4443, 5533, 5566, 5565, 5532
4182, 4445, 4478, 4477, 4444, 5534, 5567, 5566, 5533
4183, 4446, 4479, 4478, 4445, 5535, 5568, 5567, 5534
4184, 4447, 4480, 4479, 4446, 5536, 5569, 5568, 5535
4185, 4448, 4481, 4480, 4447, 5537, 5570, 5569, 5536
4186, 4449, 4482, 4481, 4448, 5538, 5571, 5570, 5537
4187, 4450, 4483, 4482, 4449, 5539, 5572, 5571, 5538
4188, 4451, 4484, 4483, 4450, 5540, 5573, 5572, 5539
4189, 4452, 4485, 4484, 4451, 5541, 5574, 5573, 5540
4190, 4453, 4486, 4485, 4452, 5542, 5575, 5574, 5541
4191, 4454, 4487, 4486, 4453, 5543, 5576, 5575, 5542
4192, 4455, 4488, 4487, 4454, 5544, 5577, 5576, 5543
4193, 4457, 4490, 4489, 4456, 5546, 5579, 5578, 5545
4194, 4458, 4491, 4490, 4457, 5547, 5580, 5579, 5546
4195, 4459, 4492, 4491, 4458, 5548, 5581, 5580, 5547
4196, 4460, 4493, 4492, 4459, 5549, 5582, 5581, 5548
4197, 4461, 4494, 4493, 4460, 5550, 5583, 5582, 5549
4198, 4462, 4495, 4494, 4461, 5551, 5584, 5583, 5550
4199, 4463, 4496, 4495, 4462, 5552, 5585, 5584, 5551
4200, 4464, 4497, 4496, 4463, 5553, 5586, 5585, 5552
4201, 4465, 4498, 4497, 4464, 5554, 5587, 5586, 5553
4202, 4466, 4499, 4498, 4465, 5555, 5588, 5587, 5554
4203, 4467, 4500, 4499, 4466, 5556, 5589, 5588, 5555
4204, 4468, 4501, 4500, 4467, 5557, 5590, 5589, 5556
4205, 4469, 4502, 4501, 4468, 5558, 5591, 5590, 5557
4206, 4470, 4503, 4502, 4469, 5559, 5592, 5591, 5558
4207, 4471, 4504, 4503, 4470, 5560, 5593, 5592, 5559
4208, 4472, 4505, 4504, 4471, 5561, 5594, 5593, 5560
4209, 4473, 4506, 4505, 4472, 5562, 5595, 5594, 5561
4210, 4474, 4507, 4506, 4473, 5563, 5596, 5595, 5562
4211, 4475, 4508, 4507, 4474, 5564, 5597, 5596, 5563
4212, 4476, 4509, 4508, 4475, 5565, 5598, 5597, 5564
4213, 4477, 4510, 4509, 4476, 5566, 5599, 5598, 5565
4214, 4478, 4511, 4510, 4477, 5567, 5600, 5599, 5566
4215, 4479, 4512, 4511, 4478, 5568, 5601, 5600, 5567
4216, 4480, 4513, 4512, 4479, 5569, 5602, 5601, 5568
4217, 4481, 4514, 4513, 4480, 5570, 5603, 5602, 5569
4218, 4482, 4515, 4514, 4481, 5571, 5604, 5603, 5570
4219, 4483, 4516, 4515, 4482, 5572, 5605, 5604, 5571
4220, 4484, 4517, 4516, 4483, 5573, 5606, 5605, 5572
4221, 4485, 4518, 4517, 4484, 5574, 5607, 5606, 5573
4222, 4486, 4519, 4518, 4485, 5575, 5608, 5607, 5574
4223, 4487, 4520, 4519, 4486, 5576, 5609, 5608, 5575
4224, 4488, 4521, 4520, 4487, 5577, 5610, 5609, 5576
4225, 4490, 4523, 4522, 4489, 5579, 5612, 5611, 5578
4226, 4491, 4524, 4523, 4490, 5580, 5613, 5612, 5579
4227, 4492, 4525, 4524, 4491, 5581, 5614, 5613, 5580
4228, 4493, 4526, 4525, 4492, 5582, 5615, 5614, 5581
4229, 4494, 4527, 4526, 4493, 5583, 5616, 5615, 5582
4230, 4495, 4528, 4527, 4494, 5584, 5617, 5616, 5583
4231, 4496, 4529, 4528, 4495, 5585, 5618, 5617, 5584
4232, 4497, 4530, 4529, 4496, 5586, 5619, 5618, 5585
4233, 4498, 4531, 4530, 4497, 5587, 5620, 5619, 5586
4234, 4499, 4532, 4531, 4498, 5588, 5621, 5620, 5587
4235, 4500, 4533, 4532, 4499, 5589, 5622, 5621, 5588
4236, 4501, 4534, 4533, 4500, 5590, 5623, 5622, 5589
4237, 4502, 4535, 4534, 4501, 5591, 5624, 5623, 5590
4238, 4503, 4536, 4535, 4502, 5592, 5625, 5624, 5591
4239, 4504, 4537, 4536, 4503, 5593, 5626, 5625, 5592
4240, 4505, 4538, 4537, 4504, 5594, 5627, 5626, 5593
4241, 4506, 4539, 4538, 4505, 5595, 5628, 5627, 5594
4242, 4507, 4540, 4539, 4506, 5596, 5629, 5628, 5595
4243, 4508, 4541, 4540, 4507, 5597, 5630, 5629, 5596
4244, 4509, 4542, 4541, 4508, 5598, 5631, 5630, 5597
4245, 4510, 4543, 4542, 4509, 5599, 5632, 5631, 5598
4246, 4511, 4544, 4543, 4510, 5600, 5633, 5632, 5599
4247, 4512, 4545, 4544, 4511, 5601, 5634, 5633, 5600
4248, 4513, 4546, 4545, 4512, 5602, 5635, 5634, 5601
4249, 4514, 4547, 4546, 4513, 5603, 5636, 5635, 5602
4250, 4515, 4548, 4547, 4514, 5604, 5637, 5636, 5603
4251, 4516, 4549, 4548, 4515, 5605, 5638, 5637, 5604
4252, 4517, 4550, 4549, 4516, 5606, 5639, 5638, 5605
4253, 4518, 4551, 4550, 4517, 5607, 5640, 5639, 5606
4254, 4519, 4552, 4551, 4518, 5608, 5641, 5640, 5607
4255, 4520, 4553, 4552, 4519, 5609, 5642, 5641, 5608
4256, 4521, 4554, 4553, 4520, 5610, 5643, 5642, 5609
4257, 4523, 4556, 4555, 4522, 5612, 5645, 5644, 5611
4258, 4524, 4557, 4556, 4523, 5613, 5646, 5645, 5612
4259, 4525, 4558, 4557, 4524, 5614, 5647, 5646, 5613
4260, 4526, 4559, 4558, 4525, 5615, 5648, 5647, 5614
4261, 4527, 4560, 4559, 4526, 5616, 5649, 5648, 5615
4262, 4528, 4561, 4560, 4527, 5617, 5650, 5649, 5616
4263, 4529, 4562, 4561, 4528, 5618, 5651, 5650, 5617
4264, 4530, 4563, 4562, 4529, 5619, 5652, 5651, 5618
4265, 4531, 4564, 4563, 4530, 5620, 5653, 5652, 5619
4266, 4532, 4565, 4564, 4531, 5621, 5654, 5653, 5620
4267, 4533, 4566, 4565, 4532, 5622, 5655, 5654, 5621
4268, 4534, 4567, 4566, 4533, 5623, 5656, 5655, 5622
4269, 4535, 4568, 4567, 4534, 5624, 5657, 5656, 5623
4270, 4536, 4569, 4568, 4535, 5625, 5658, 5657, 5624
4271, 4537, 4570, 4569, 4536, 5626, 5659, 5658, 5625
4272, 4538, 4571, 4570, 4537, 5627, 5660, 5659, 5626
4273, 4539, 4572, 4571, 4538, 5628, 5661, 5660, 5627
4274, 4540, 4573, 4572, 4539, 5629, 5662, 5661, 5628
4275, 4541, 4574, 4573, 4540, 5630, 5663, 5662, 5629
4276, 4542, 4575, 4574, 4541, 5631, 5664, 5663, 5630
4277, 4543, 4576, 4575, 4542, 5632, 5665, 5664, 5631
4278, 4544, 4577, 4576, 4543, 5633, 5666, 5665, 5632
4279, 4545, 4578, 4577, 4544, 5634, 5667, 5666, 5633
4280, 4546, 4579, 4578, 4545, 5635, 5668, 5667, 5634
4281, 4547, 4580, 4579, 4546, 5636, 5669, 5668, 5635
4282, 4548, 4581, 4580, 4547, 5637, 5670, 5669, 5636
4283, 4549, 4582, 4581, 4548, 5638, 5671, 5670, 5637
4284, 4550, 4583, 4582, 4549, 5639, 5672, 5671, 5638
4285, 4551, 4584, 4583, 4550, 5640, 5673, 5672, 5639
4286, 4552, 4585, 4584, 4551, 5641, 5674, 5673, 5640
4287, 4553, 4586, 4585, 4552, 5642, 5675, 5674, 5641
4288, 4554, 4587, 4586, 4553, 5643, 5676, 5675, 5642
4289, 4556, 4589, 4588, 4555, 5645, 5678, 5677, 5644
4290, 4557, 4590, 4589, 4556, 5646, 5679, 5678, 5645
4291, 4558, 4591, 4590, 4557, 5647, 5680, 5679, 5646
4292, 4559, 4592, 4591, 4558, 5648, 5681, 5680, 5647
4293, 4560, 4593, 4592, 4559, 5649, 5682, 5681, 5648
4294, 4561, 4594, 4593, 4560, 5650, 5683, 5682, 5649
4295, 4562, 4595, 4594, 4561, 5651, 5684, 5683, 5650
4296, 4563, 4596, 4595, 4562, 5652, 5685, 5684, 5651
4297, 4564, 4597, 4596, 4563, 5653, 5686, 5685, 5652
4298, 4565, 4598, 4597, 4564, 5654, 5687, 5686, 5653
4299, 4566, 4599, 4598, 4565, 5655, 5688, 5687, 5654
4300, 4567, 4600, 4599, 4566, 5656, 5689, 5688, 5655
4301, 4568, 4601, 4600, 4567, 5657, 5690, 5689, 5656
4302, 4569, 4602, 4601, 4568, 5658, 5691, 5690, 5657
4303, 4570, 4603, 4602, 4569, 5659, 5692, 5691, 5658
4304, 4571, 4604, 4603, 4570, 5660, 5693, 5692, 5659
4305, 4572, 4605, 4604, 4571, 5661, 5694, 5693, 5660
4306, 4573, 4606, 4605, 4572, 5662, 5695, 5694, 5661
4307, 4574, 4607, 4606, 4573, 5663, 5696, 5695, 5662
4308, 4575, 4608, 4607, 4574, 5664, 5697, 5696, 5663
4309, 4576, 4609, 4608, 4575, 5665, 5698, 5697, 5664
4310, 4577, 4610, 4609, 4576, 5666, 5699, 5698, 5665
4311, 4578, 4611, 4610, 4577, 5667, 5700, 5699, 5666
4312, 4579, 4612, 4611, 4578, 5668, 5701, 5700, 5667
4313, 4580, 4613, 4612, 4579, 5669, 5702, 5701, 5668
4314, 4581, 4614, 4613, 4580, 5670, 5703, 5702, 5669
4315, 4582, 4615, 4614, 4581, 5671, 5704, 5703, 5670
4316, 4583, 4616, 4615, 4582, 5672, 5705, 5704, 5671
4317, 4584, 4617, 4616, 4583, 5673, 5706, 5705, 5672
4318, 4585, 4618, 4617, 4584, 5674, 5707, 5706, 5673
4319, 4586, 4619, 4618, 4585, 5675, 5708, 5707, 5674
4320, 4587, 4620, 4619, 4586, 5676, 5709, 5708, 5675
4321, 4589, 4622, 4621, 4588, 5678, 5711, 5710, 5677
4322, 4590, 4623, 4622, 4589, 5679, 5712, 5711, 5678
4323, 4591, 4624, 4623, 4590, 5680, 5713, 5712, 5679
4324, 4592, 4625, 4624, 4591, 5681, 5714, 5713, 5680
4325, 4593, 4626, 4625, 4592, 5682, 5715, 5714, 5681
4326, 4594, 4627, 4626, 4593, 5683, 5716, 5715, 5682
4327, 4595, 4628, 4627, 4594, 5684, 5717, 5716, 5683
4328, 4596, 4629, 4628, 4595, 5685, 5718, 5717, 5684
4329, 4597, 4630, 4629, 4596, 5686, 5719, 5718, 5685
4330, 4598, 4631, 4630, 4597, 5687, 5720, 5719, 5686
4331, 4599, 4632, 4631, 4598, 5688, 5721, 5720, 5687
4332, 4600, 4633, 4632, 4599, 5689, 5722, 5721, 5688
4333, 4601, 4634, 4633, 4600, 5690, 5723, 5722, 5689
4334, 4602, 4635, 4634, 4601, 5691, 5724, 5723, 5690
4335, 4603, 4636, 4635, 4602, 5692, 5725, 5724, 5691
4336, 4604, 4637, 4636, 4603, 5693, 5726, 5725, 5692
4337, 4605, 4638, 4637, 4604, 5694, 5727, 5726, 5693
4338, 4606, 4639, 4638, 4605, 5695, 5728, 5727, 5694
4339, 4607, 4640, 4639, 4606, 5696, 5729, 5728, 5695
4340, 4608, 4641, 4640, 4607, 5697, 5730, 5729, 5696
4341, 4609, 4642, 4641, 4608, 5698, 5731, 5730, 5697
4342, 4610, 4643, 4642, 4609, 5699, 5732, 5731, 5698
4343, 4611, 4644, 4643, 4610, 5700, 5733, 5732, 5699
4344, 4612, 4645, 4644, 4611, 5701, 5734, 5733, 5700
4345, 4613, 4646, 4645, 4612, 5702, 5735, 5734, 5701
4346, 4614, 4647, 4646, 4613, 5703, 5736, 5735, 5702
4347, 4615, 4648, 4647, 4614, 5704, 5737, 5736, 5703
4348, 4616, 4649, 4648, 4615, 5705, 5738, 5737, 5704
4349, 4617, 4650, 4649, 4616, 5706, 5739, 5738, 5705
4350, 4618, 4651, 4650, 4617, 5707, 5740, 5739, 5706
4351, 4619, 4652, 4651, 4618, 5708, 5741, 5740, 5707
4352, 4620, 4653, 4652, 4619, 5709, 5742, 5741, 5708
4353, 4622, 4655, 4654, 4621, 5711, 5744, 5743, 5710
4354, 4623, 4656, 4655, 4622, 5712, 5745, 5744, 5711
4355, 4624, 4657, 4656, 4623, 5713, 5746, 5745, 5712
4356, 4625, 4658, 4657, 4624, 5714, 5747, 5746, 5713
4357, 4626, 4659, 4658, 4625, 5715, 5748, 5747, 5714
4358, 4627, 4660, 4659, 4626, 5716, 5749, 5748, 5715
4359, 4628, 4661, 4660, 4627, 5717, 5750, 5749, 5716
4360, 4629, 4662, 4661, 4628, 5718, 5751, 5750, 5717
4361, 4630, 4663, 4662, 4629, 5719, 5752, 5751, 5718
4362, 4631, 4664, 4663, 4630, 5720, 5753, 5752, 5719
4363, 4632, 4665, 4664, 4631, 5721, 5754, 5753, 5720
4364, 4633, 4666, 4665, 4632, 5722, 5755, 5754, 5721
4365, 4634, 4667, 4666, 4633, 5723, 5756, 5755, 5722
4366, 4635, 4668, 4667, 4634, 5724, 5757, 5756, 5723
4367, 4636, 4669, 4668, 4635, 5725, 5758, 5757, 5724
4368, 4637, 4670, 4669, 4636, 5726, 5759, 5758, 5725
4369, 4638, 4671, 4670, 4637, 5727, 5760, 5759, 5726
4370, 4639, 4672, 4671, 4638, 5728, 5761, 5760, 5727
4371, 4640, 4673, 4672, 4639, 5729, 5762, 5761, 5728
4372, 4641, 4674, 4673, 4640, 5730, 5763, 5762, 5729
4373, 4642, 4675, 4674, 4641, 5731, 5764, 5763, 5730
4374, 4643, 4676, 4675, 4642, 5732, 5765, 5764, 5731
4375, 4644, 4677, 4676, 4643, 5733, 5766, 5765, 5732
4376, 4645, 4678, 4677, 4644, 5734, 5767, 5766, 5733
4377, 4646, 4679, 4678, 4645, 5735, 5768, 5767, 5734
4378, 4647, 4680, 4679, 4646, 5736, 5769, 5768, 5735
4379, 4648, 4681, 4680, 4647, 5737, 5770, 5769, 5736
4380, 4649, 4682, 4681, 4648, 5738, 5771, 5770, 5737
4381, 4650, 4683, 4682, 4649, 5739, 5772, 5771, 5738
4382, 4651, 4684, 4683, 4650, 5740, 5773, 5772, 5739
4383, 4652, 4685, 4684, 4651, 5741, 5774, 5773, 5740
4384, 4653, 4686, 4685, 4652, 5742, 5775, 5774, 5741
4385, 4655, 4688, 4687, 4654, 5744, 5777, 5776, 5743
4386, 4656, 4689, 4688, 4655, 5745, 5778, 5777, 5744
4387, 4657, 4690, 4689, 4656, 5746, 5779, 5778, 5745
4388, 4658, 4691, 4690, 4657, 5747, 5780, 5779, 5746
4389, 4659, 4692, 4691, 4658, 5748, 5781, 5780, 5747
4390, 4660, 4693, 4692, 4659, 5749, 5782, 5781, 5748
4391, 4661, 4694, 4693, 4660, 5750, 5783, 5782, 5749
4392, 4662, 4695, 4694, 4661, 5751, 5784, 5783, 5750
4393, 4663, 4696, 4695, 4662, 5752, 5785, 5784, 5751
4394, 4664, 4697, 4696, 4663, 5753, 5786, 5785, 5752
4395, 4665, 4698, 4697, 4664, 5754, 5787, 5786, 5753
4396, 4666, 4699, 4698, 4665, 5755, 5788, 5787, 5754
4397, 4667, 4700, 4699, 4666, 5756, 5789, 5788, 5755
4398, 4668, 4701, 4700, 4667, 5757, 5790, 5789, 5756
4399, 4669, 4702, 4701, 4668, 5758, 5791, 5790, 5757
4400, 4670, 4703, 4702, 4669, 5759, 5792, 5791, 5758
4401, 4671, 4704, 4703, 4670, 5760, 5793, 5792, 5759
4402, 4672, 4705, 4704, 4671, 5761, 5794, 5793, 5760
4403, 4673, 4706, 4705, 4672, 5762, 5795, 5794, 5761
4404, 4674, 4707, 4706, 4673, 5763, 5796, 5795, 5762
4405, 4675, 4708, 4707, 4674, 5764, 5797, 5796, 5763
4406, 4676, 4709, 4708, 4675, 5765, 5798, 5797, 5764
4407, 4677, 4710, 4709, 4676, 5766, 5799, 5798, 5765
4408, 4678, 4711, 4710, 4677, 5767, 5800, 5799, 5766
4409, 4679, 4712, 4711, 4678, 5768, 5801, 5800, 5767
4410, 4680, 4713, 4712, 4679, 5769, 5802, 5801, 5768
4411, 4681, 4714, 4713, 4680, 5770, 5803, 5802, 5769
4412, 4682, 4715, 4714, 4681, 5771, 5804, 5803, 5770
4413, 4683, 4716, 4715, 4682, 5772, 5805, 5804, 5771
4414, 4684, 4717, 4716, 4683, 5773, 5806, 5805, 5772
4415, 4685, 4718, 4717, 4684, 5774, 5807, 5806, 5773
4416, 4686, 4719, 4718, 4685, 5775, 5808, 5807, 5774
4417, 4688, 4721, 4720, 4687, 5777, 5810, 5809, 5776
4418, 4689, 4722, 4721, 4688, 5778, 5811, 5810, 5777
4419, 4690, 4723, 4722, 4689, 5779, 5812, 5811, 5778
4420, 4691, 4724, 4723, 4690, 5780, 5813, 5812, 5779
4421, 4692, 4725, 4724, 4691, 5781, 5814, 5813, 5780
4422, 4693, 4726, 4725, 4692, 5782, 5815, 5814, 5781
4423, 4694, 4727, 4726, 4693, 5783, 5816, 5815, 5782
4424, 4695, 4728, 4727, 4694, 5784, 5817, 5816, 5783
4425, 4696, 4729, 4728, 4695, 5785, 5818, 5817, 5784
4426, 4697, 4730, 4729, 4696, 5786, 5819, 5818, 5785
4427, 4698, 4731, 4730, 4697, 5787, 5820, 5819, 5786
4428, 4699, 4732, 4731, 4698, 5788, 5821, 5820, 5787
4429, 4700, 4733, 4732, 4699, 5789, 5822, 5821, 5788
4430, 4701, 4734, 4733, 4700, 5790, 5823, 5822, 5789
4431, 4702, 4735, 4734, 4701, 5791, 5824, 5823, 5790
4432, 4703, 4736, 4735, 4702, 5792, 5825, 5824, 5791
4433, 4704, 4737, 4736, 4703, 5793, 5826, 5825, 5792
4434, 4705, 4738, 4737, 4704, 5794, 5827, 5826, 5793
4435, 4706, 4739, 4738, 4705, 5795, 5828, 5827, 5794
4436, 4707, 4740, 4739, 4706, 5796, 5829, 5828, 5795
4437, 4708, 4741, 4740, 4707, 5797, 5830, 5829, 5796
4438, 4709, 4742, 4741, 4708, 5798, 5831, 5830, 5797
4439, 4710, 4743, 4742, 4709, 5799, 5832, 5831, 5798
4440, 4711, 4744, 4743, 4710, 5800, 5833, 5832, 5799
4441, 4712, 4745, 4744, 4711, 5801, 5834, 5833, 5800
4442, 4713, 4746, 4745, 4712, 5802, 5835, 5834, 5801
4443, 4714, 4747, 4746, 4713, 5803, 5836, 5835, 5802
4444, 4715, 4748, 4747, 4714, 5804, 5837, 5836, 5803
4445, 4716, 4749, 4748, 4715, 5805, 5838, 5837, 5804
4446, 4717, 4750, 4749, 4716, 5806, 5839, 5838, 5805
4447, 4718, 4751, 4750, 4717, 5807, 5840, 5839, 5806
4448, 4719, 4752, 4751, 4718, 5808, 5841, 5840, 5807
4449, 4721, 4754, 4753, 4720, 5810, 5843, 5842, 5809
4450, 4722, 4755, 4754, 4721, 5811, 5844, 5843, 5810
4451, 4723, 4756, 4755, 4722, 5812, 5845, 5844, 5811
4452, 4724, 4757, 4756, 4723, 5813, 5846, 5845, 5812
4453, 4725, 4758, 4757, 4724, 5814, 5847, 5846, 5813
4454, 4726, 4759, 4758, 4725, 5815, 5848, 5847, 5814
4455, 4727, 4760, 4759, 4726, 5816, 5849, 5848, 5815
4456, 4728, 4761, 4760, 4727, 5817, 5850, 5849, 5816
4457, 4729, 4762, 4761, 4728, 5818, 5851, 5850, 5817
4458, 4730, 4763, 4762, 4729, 5819, 5852, 5851, 5818
4459, 4731, 4764, 4763, 4730, 5820, 5853, 5852, 5819
4460, 4732, 4765, 4764, 4731, 5821, 5854, 5853, 5820
4461, 4733, 4766, 4765, 4732, 5822, 5855, 5854, 5821
4462, 4734, 4767, 4766, 4733, 5823, 5856, 5855, 5822
4463, 4735, 4768, 4767, 4734, 5824, 5857, 5856, 5823
4464, 4736, 4769, 4768, 4735, 5825, 5858, 5857, 5824
4465, 4737, 4770, 4769, 4736, 5826, 5859, 5858, 5825
4466, 4738, 4771, 4770, 4737, 5827, 5860, 5859, 5826
4467, 4739, 4772, 4771, 4738, 5828, 5861, 5860, 5827
4468, 4740, 4773, 4772, 4739, 5829, 5862, 5861, 5828
4469, 4741, 4774, 4773, 4740, 5830, 5863, 5862, 5829
4470, 4742, 4775, 4774, 4741, 5831, 5864, 5863, 5830
4471, 4743, 4776, 4775, 4742, 5832, 5865, 5864, 5831
4472, 4744, 4777, 4776, 4743, 5833, 5866, 5865, 5832
4473, 4745, 4778, 4777, 4744, 5834, 5867, 5866, 5833
4474, 4746, 4779, 4778, 4745, 5835, 5868, 5867, 5834
4475, 4747, 4780, 4779, 4746, 5836, 5869, 5868, 5835
4476, 4748, 4781, 4780, 4747, 5837, 5870, 5869, 5836
4477, 4749, 4782, 4781, 4748, 5838, 5871, 5870, 5837
4478, 4750, 4783, 4782, 4749, 5839, 5872, 5871, 5838
4479, 4751, 4784, 4783, 4750, 5840, 5873, 5872, 5839
4480, 4752, 4785, 4784, 4751, 5841, 5874, 5873, 5840
4481, 4754, 4787, 4786, 4753, 5843, 5876, 5875, 5842
4482, 4755, 4788, 4787, 4754, 5844, 5877, 5876, 5843
4483, 4756, 4789, 4788, 4755, 5845, 5878, 5877, 5844
4484, 4757, 4790, 4789, 4756, 5846, 5879, 5878, 5845
4485, 4758, 4791, 4790, 4757, 5847, 5880, 5879, 5846
4486, 4759, 4792, 4791, 4758, 5848, 5881, 5880, 5847
4487, 4760, 4793, 4792, 4759, 5849, 5882, 5881, 5848
4488, 4761, 4794, 4793, 4760, 5850, 5883, 5882, 5849
4489, 4762, 4795, 4794, 4761, 5851, 5884, 5883, 5850
4490, 4763, 4796, 4795, 4762, 5852, 5885, 5884, 5851
4491, 4764, 4797, 4796, 4763, 5853, 5886, 5885, 5852
4492, 4765, 4798, 4797, 4764, 5854, 5887, 5886, 5853
4493, 4766, 4799, 4798, 4765, 5855, 5888, 5887, 5854
4494, 4767, 4800, 4799, 4766, 5856, 5889, 5888, 5855
4495, 4768, 4801, 4800, 4767, 5857, 5890, 5889, 5856
4496, 4769, 4802, 4801, 4768, 5858, 5891, 5890, 5857
4497, 4770, 4803, 4802, 4769, 5859, 5892, 5891, 5858
4498, 4771, 4804, 4803, 4770, 5860, 5893, 5892, 5859
4499, 4772, 4805, 4804, 4771, 5861, 5894, 5893, 5860
4500, 4773, 4806, 4805, 4772, 5862, 5895, 5894, 5861
4501, 4774, 4807, 4806, 4773, 5863, 5896, 5895, 5862
4502, 4775, 4808, 4807, 4774, 5864, 5897, 5896, 5863
4503, 4776, 4809, 4808, 4775, 5865, 5898, 5897, 5864
4504, 4777, 4810, 4809, 4776, 5866, 5899, 5898, 5865
4505, 4778, 4811, 4810, 4777, 5867, 5900, 5899, 5866
4506, 4779, 4812, 4811, 4778, 5868, 5901, 5900, 5867
4507, 4780, 4813, 4812, 4779, 5869, 5902, 5901, 5868
4508, 4781, 4814, 4813, 4780, 5870, 5903, 5902, 5869
4509, 4782, 4815, 4814, 4781, 5871, 5904, 5903, 5870
4510, 4783, 4816, 4815, 4782, 5872, 5905, 5904, 5871
4511, 4784, 4817, 4816, 4783, 5873, 5906, 5905, 5872
4512, 4785, 4818, 4817, 4784, 5874, 5907, 5906, 5873
4513, 4787, 4820, 4819, 4786, 5876, 5909, 5908, 5875
4514, 4788, 4821, 4820, 4787, 5877, 5910, 5909, 5876
4515, 4789, 4822, 4821, 4788, 5878, 5911, 5910, 5877
4516, 4790, 4823, 4822, 4789, 5879, 5912, 5911, 5878
4517, 4791, 4824, 4823, 4790, 5880, 5913, 5912, 5879
4518, 4792, 4825, 4824, 4791, 5881, 5914, 5913, 5880
4519, 4793, 4826, 4825, 4792, 5882, 5915, 5914, 5881
4520, 4794, 4827, 4826, 4793, 5883, 5916, 5915, 5882
4521, 4795, 4828, 4827, 4794, 5884, 5917, 5916, 5883
4522, 4796, 4829, 4828, 4795, 5885, 5918, 5917, 5884
4523, 4797, 4830, 4829, 4796, 5886, 5919, 5918, 5885
4524, 4798, 4831, 4830, 4797, 5887, 5920, 5919, 5886
4525, 4799, 4832, 4831, 4798, 5888, 5921, 5920, 5887
4526, 4800, 4833, 4832, 4799, 5889, 5922, 5921, 5888
4527, 4801, 4834, 4833, 4800, 5890, 5923, 5922, 5889
4528, 4802, 4835, 4834, 4801, 5891, 5924, 5923, 5890
4529, 4803, 4836, 4835, 4802, 5892, 5925, 5924, 5891
4530, 4804, 4837, 4836, 4803, 5893, 5926, 5925, 5892
4531, 4805, 4838, 4837, 4804, 5894, 5927, 5926, 5893
4532, 4806, 4839, 4838, 4805, 5895, 5928, 5927, 5894
4533, 4807, 4840, 4839, 4806, 5896, 5929, 5928, 5895
4534, 4808, 4841, 4840, 4807, 5897, 5930, 5929, 5896
4535, 4809, 4842, 4841, 4808, 5898, 5931, 5930, 5897
4536, 4810, 4843, 4842, 4809, 5899, 5932, 5931, 5898
4537, 4811, 4844, 4843, 4810, 5900, 5933, 5932, 5899
4538, 4812, 4845, 4844, 4811, 5901, 5934, 5933, 5900
4539, 4813, 4846, 4845, 4812, 5902, 5935, 5934, 5901
4540, 4814, 4847, 4846, 4813, 5903, 5936, 5935, 5902
4541, 4815, 4848, 4847, 4814, 5904, 5937, 5936, 5903
4542, 4816, 4849, 4848, 4815, 5905, 5938, 5937, 5904
4543, 4817, 4850, 4849, 4816, 5906, 5939, 5938, 5905
4544, 4818, 4851, 4850, 4817, 5907, 5940, 5939, 5906
4545, 4820, 4853, 4852, 4819, 5909, 5942, 5941, 5908
4546, 4821, 4854, 4853, 4820, 5910, 5943, 5942, 5909
4547, 4822, 4855, 4854, 4821, 5911, 5944, 5943, 5910
4548, 4823, 4856, 4855, 4822, 5912, 5945, 5944, 5911
4549, 4824, 4857, 4856, 4823, 5913, 5946, 5945, 5912
4550, 4825, 4858, 4857, 4824, 5914, 5947, 5946, 5913
4551, 4826, 4859, 4858, 4825, 5915, 5948, 5947, 5914
4552, 4827, 4860, 4859, 4826, 5916, 5949, 5948, 5915
4553, 4828, 4861, 4860, 4827, 5917, 5950, 5949, 5916
4554, 4829, 4862, 4861, 4828, 5918, 5951, 5950, 5917
4555, 4830, 4863, 4862, 4829, 5919, 5952, 5951, 5918
4556, 4831, 4864, 4863, 4830, 5920, 5953, 5952, 5919
4557, 4832, 4865, 4864, 4831, 5921, 5954, 5953, 5920
4558, 4833, 4866, 4865, 4832, 5922, 5955, 5954, 5921
4559, 4834, 4867, 4866, 4833, 5923, 5956, 5955, 5922
4560, 4835, 4868, 4867, 4834, 5924, 5957, 5956, 5923
4561, 4836, 4869, 4868, 4835, 5925, 5958, 5957, 5924
4562, 4837, 4870, 4869, 4836, 5926, 5959, 5958, 5925
4563, 4838, 4871, 4870, 4837, 5927, 5960, 5959, 5926
4564, 4839, 4872, 4871, 4838, 5928, 5961, 5960, 5927
4565, 4840, 4873, 4872, 4839, 5929, 5962, 5961, 5928
4566, 4841, 4874, 4873, 4840, 5930, 5963, 5962, 5929
4567, 4842, 4875, 4874, 4841, 5931, 5964, 5963, 5930
4568, 4843, 4876, 4875, 4842, 5932, 5965, 5964, 5931
4569, 4844, 4877, 4876, 4843, 5933, 5966, 5965, 5932
4570, 4845, 4878, 4877, 4844, 5934, 5967, 5966, 5933
4571, 4846, 4879, 4878, 4845, 5935, 5968, 5967, 5934
4572, 4847, 4880, 4879, 4846, 5936, 5969, 5968, 5935
4573, 4848, 4881, 4880, 4847, 5937, 5970, 5969, 5936
4574, 4849, 4882, 4881, 4848, 5938, 5971, 5970, 5937
4575, 4850, 4883, 4882, 4849, 5939, 5972, 5971, 5938
4576, 4851, 4884, 4883, 4850, 5940, 5973, 5972, 5939
4577, 4853, 4886, 4885, 4852, 5942, 5975, 5974, 5941
4578, 4854, 4887, 4886, 4853, 5943, 5976, 5975, 5942
4579, 4855, 4888, 4887, 4854, 5944, 5977, 5976, 5943
4580, 4856, 4889, 4888, 4855, 5945, 5978, 5977, 5944
4581, 4857, 4890, 4889, 4856, 5946, 5979, 5978, 5945
4582, 4858, 4891, 4890, 4857, 5947, 5980, 5979, 5946
4583, 4859, 4892, 4891, 4858, 5948, 5981, 5980, 5947
4584, 4860, 4893, 4892, 4859, 5949, 5982, 5981, 5948
4585, 4861, 4894, 4893, 4860, 5950, 5983, 5982, 5949
4586, 4862, 4895, 4894, 4861, 5951, 5984, 5983, 5950
4587, 4863, 4896, 4895, 4862, 5952, 5985, 5984, 5951
4588, 4864, 4897, 4896, 4863, 5953, 5986, 5985, 5952
4589, 4865, 4898, 4897, 4864, 5954, 5987, 5986, 5953
4590, 4866, 4899, 4898, 4865, 5955, 5988, 5987, 5954
4591, 4867, 4900, 4899, 4866, 5956, 5989, 5988, 5955
4592, 4868, 4901, 4900, 4867, 5957, 5990, 5989, 5956
4593, 4869, 4902, 4901, 4868, 5958, 5991, 5990, 5957
4594, 4870, 4903, 4902, 4869, 5959, 5992, 5991, 5958
4595, 4871, 4904, 4903, 4870, 5960, 5993, 5992, 5959
4596, 4872, 4905, 4904, 4871, 5961, 5994, 5993, 5960
4597, 4873, 4906, 4905, 4872, 5962, 5995, 5994, 5961
4598, 4874, 4907, 4906, 4873, 5963, 5996, 5995, 5962
4599, 4875, 4908, 4907, 4874, 5964, 5997, 5996, 5963
4600, 4876, 4909, 4908, 4875, 5965, 5998, 5997, 5964
4601, 4877, 4910, 4909, 4876, 5966, 5999, 5998, 5965
4602, 4878, 4911, 4910, 4877, 5967, 6000, 5999, 5966
4603, 4879, 4912, 4911, 4878, 5968, 6001, 6000, 5967
4604, 4880, 4913, 4912, 4879, 5969, 6002, 6001, 5968
4605, 4881, 4914, 4913, 4880, 5970, 6003, 6002, 5969
4606, 4882, 4915, 4914, 4881, 5971, 6004, 6003, 5970
4607, 4883, 4916, 4915, 4882, 5972, 6005, 6004, 5971
4608, 4884, 4917, 4916, 4883, 5973, 6006, 6005, 5972
4609, 4886, 4919, 4918, 4885, 5975, 6008, 6007, 5974
4610, 4887, 4920, 4919, 4886, 5976, 6009, 6008, 5975
4611, 4888, 4921, 4920, 4887, 5977, 6010, 6009, 5976
4612, 4889, 4922, 4921, 4888, 5978, 6011, 6010, 5977
4613, 4890, 4923, 4922, 4889, 5979, 6012, 6011, 5978
4614, 4891, 4924, 4923, 4890, 5980, 6013, 6012, 5979
4615, 4892, 4925, 4924, 4891, 5981, 6014, 6013, 5980
4616, 4893, 4926, 4925, 4892, 5982, 6015, 6014, 5981
4617, 4894, 4927, 4926, 4893, 5983, 6016, 6015, 5982
4618, 4895, 4928, 4927, 4894, 5984, 6017, 6016, 5983
4619, 4896, 4929, 4928, 4895, 5985, 6018, 6017, 5984
4620, 4897, 4930, 4929, 4896, 5986, 6019, 6018, 5985
4621, 4898, 4931, 4930, 4897, 5987, 6020, 6019, 5986
4622, 4899, 4932, 4931, 4898, 5988, 6021, 6020, 5987
4623, 4900, 4933, 4932, 4899, 5989, 6022, 6021, 5988
4624, 4901, 4934, 4933, 4900, 5990, 6023, 6022, 5989
4625, 4902, 4935, 4934, 4901, 5991, 6024, 6023, 5990
4626, 4903, 4936, 4935, 4902, 5992, 6025, 6024, 5991
4627, 4904, 4937, 4936, 4903, 5993, 6026, 6025, 5992
4628, 4905, 4938, 4937, 4904, 5994, 6027, 6026, 5993
4629, 4906, 4939, 4938, 4905, 5995, 6028, 6027, 5994
4630, 4907, 4940, 4939, 4906, 5996, 6029, 6028, 5995
4631, 4908, 4941, 4940, 4907, 5997, 6030, 6029, 5996
4632, 4909, 4942, 4941, 4908, 5998, 6031, 6030, 5997
4633, 4910, 4943, 4942, 4909, 5999, 6032, 6031, 5998
4634, 4911, 4944, 4943, 4910, 6000, 6033, 6032, 5999
4635, 4912, 4945, 4944, 4911, 6001, 6034, 6033, 6000
4636, 4913, 4946, 4945, 4912, 6002, 6035, 6034, 6001
4637, 4914, 4947, 4946, 4913, 6003, 6036, 6035, 6002
4638, 4915, 4948, 4947, 4914, 6004, 6037, 6036, 6003
4639, 4916, 4949, 4948, 4915, 6005, 6038, 6037, 6004
4640, 4917, 4950, 4949, 4916, 6006, 6039, 6038, 6005
4641, 4919, 4952, 4951, 4918, 6008, 6041, 6040, 6007
4642, 4920, 4953, 4952, 4919, 6009, 6042, 6041, 6008
4643, 4921, 4954, 4953, 4920, 6010, 6043, 6042, 6009
4644, 4922, 4955, 4954, 4921, 6011, 6044, 6043, 6010
4645, 4923, 4956, 4955, 4922, 6012, 6045, 6044, 6011
4646, 4924, 4957, 4956, 4923, 6013, 6046, 6045, 6012
4647, 4925, 4958, 4957, 4924, 6014, 6047, 6046, 6013
4648, 4926, 4959, 4958, 4925, 6015, 6048, 6047, 6014
4649, 4927, 4960, 4959, 4926, 6016, 6049, 6048, 6015
4650, 4928, 4961, 4960, 4927, 6017, 6050, 6049, 6016
4651, 4929, 4962, 4961, 4928, 6018, 6051, 6050, 6017
4652, 4930, 4963, 4962, 4929, 6019, 6052, 6051, 6018
4653, 4931, 4964, 4963, 4930, 6020, 6053, 6052, 6019
4654, 4932, 4965, 4964, 4931, 6021, 6054, 6053, 6020
4655, 4933, 4966, 4965, 4932, 6022, 6055, 6054, 6021
4656, 4934, 4967, 4966, 4933, 6023, 6056, 6055, 6022
4657, 4935, 4968, 4967, 4934, 6024, 6057, 6056, 6023
4658, 4936, 4969, 4968, 4935, 6025, 6058, 6057, 6024
4659, 4937, 4970, 4969, 4936, 6026, 6059, 6058, 6025
4660, 4938, 4971, 4970, 4937, 6027, 6060, 6059, 6026
4661, 4939, 4972, 4971, 4938, 6028, 6061, 6060, 6027
4662, 4940, 4973, 4972, 4939, 6029, 6062, 6061, 6028
4663, 4941, 4974, 4973, 4940, 6030, 6063, 6062, 6029
4664, 4942, 4975, 4974, 4941, 6031, 6064, 6063, 6030
4665, 4943, 4976, 4975, 4942, 6032, 6065, 6064, 6031
4666, 4944, 4977, 4976, 4943, 6033, 6066, 6065, 6032
4667, 4945, 4978, 4977, 4944, 6034, 6067, 6066, 6033
4668, 4946, 4979, 4978, 4945, 6035, 6068, 6067, 6034
4669, 4947, 4980, 4979, 4946, 6036, 6069, 6068, 6035
4670, 4948, 4981, 4980, 4947, 6037, 6070, 6069, 6036
4671, 4949, 4982, 4981, 4948, 6038, 6071, 6070, 6037
4672, 4950, 4983, 4982, 4949, 6039, 6072, 6071, 6038
4673, 4952, 4985, 4984, 4951, 6041, 6074, 6073, 6040
4674, 4953, 4986, 4985, 4952, 6042, 6075, 6074, 6041
4675, 4954, 4987, 4986, 4953, 6043, 6076, 6075, 6042
4676, 4955, 4988, 4987, 4954, 6044, 6077, 6076, 6043
4677, 4956, 4989, 4988, 4955, 6045, 6078, 6077, 6044
4678, 4957, 4990, 4989, 4956, 6046, 6079, 6078, 6045
4679, 4958, 4991, 4990, 4957, 6047, 6080, 6079, 6046
4680, 4959, 4992, 4991, 4958, 6048, 6081, 6080, 6047
4681, 4960, 4993, 4992, 4959, 6049, 6082, 6081, 6048
4682, 4961, 4994, 4993, 4960, 6050, 6083, 6082, 6049
4683, 4962, 4995, 4994, 4961, 6051, 6084, 6083, 6050
4684, 4963, 4996, 4995, 4962, 6052, 6085, 6084, 6051
4685, 4964, 4997, 4996, 4963, 6053, 6086, 6085, 6052
4686, 4965, 4998, 4997, 4964, 6054, 6087, 6086, 6053
4687, 4966, 4999, 4998, 4965, 6055, 6088, 6087, 6054
4688, 4967, 5000, 4999, 4966, 6056, 6089, 6088, 6055
4689, 4968, 5001, 5000, 4967, 6057, 6090, 6089, 6056
4690, 4969, 5002, 5001, 4968, 6058, 6091, 6090, 6057
4691, 4970, 5003, 5002, 4969, 6059, 6092, 6091, 6058
4692, 4971, 5004, 5003, 4970, 6060, 6093, 6092, 6059
4693, 4972, 5005, 5004, 4971, 6061, 6094, 6093, 6060
4694, 4973, 5006, 5005, 4972, 6062, 6095, 6094, 6061
4695, 4974, 5007, 5006, 4973, 6063, 6096, 6095, 6062
4696, 4975, 5008, 5007, 4974, 6064, 6097, 6096, 6063
4697, 4976, 5009, 5008, 4975, 6065, 6098, 6097, 6064
4698, 4977, 5010, 5009, 4976, 6066, 6099, 6098, 6065
4699, 4978, 5011, 5010, 4977, 6067, 6100, 6099, 6066
4700, 4979, 5012, 5011, 4978, 6068, 6101, 6100, 6067
4701, 4980, 5013, 5012, 4979, 6069, 6102, 6101, 6068
4702, 4981, 5014, 5013, 4980, 6070, 6103, 6102, 6069
4703, 4982, 5015, 5014, 4981, 6071, 6104, 6103, 6070
4704, 4983, 5016, 5015, 4982, 6072, 6105, 6104, 6071
4705, 4985, 5018, 5017, 4984, 6074, 6107, 6106, 6073
4706, 4986, 5019, 5018, 4985, 6075, 6108, 6107, 6074
4707, 4987, 5020, 5019, 4986, 6076, 6109, 6108, 6075
4708, 4988, 5021, 5020, 4987, 6077, 6110, 6109, 6076
4709, 4989, 5022, 5021, 4988, 6078, 6111, 6110, 6077
4710, 4990, 5023, 5022, 4989, 6079, 6112, 6111, 6078
4711, 4991, 5024, 5023, 4990, 6080, 6113, 6112, 6079
4712, 4992, 5025, 5024, 4991, 6081, 6114, 6113, 6080
4713, 4993, 5026, 5025, 4992, 6082, 6115, 6114, 6081
4714, 4994, 5027, 5026, 4993, 6083, 6116, 6115, 6082
4715, 4995, 5028, 5027, 4994, 6084, 6117, 6116, 6083
4716, 4996, 5029, 5028, 4995, 6085, 6118, 6117, 6084
4717, 4997, 5030, 5029, 4996, 6086, 6119, 6118, 6085
4718, 4998, 5031, 5030, 4997, 6087, 6120, 6119, 6086
4719, 4999, 5032, 5031, 4998, 6088, 6121, 6120, 6087
4720, 5000, 5033, 5032, 4999, 6089, 6122, 6121, 6088
4721, 5001, 5034, 5033, 5000, 6090, 6123, 6122, 6089
4722, 5002, 5035, 5034, 5001, 6091, 6124, 6123, 6090
4723, 5003, 5036, 5035, 5002, 6092, 6125, 6124, 6091
4724, 5004, 5037, 5036, 5003, 6093, 6126, 6125, 6092
4725, 5005, 5038, 5037, 5004, 6094, 6127, 6126, 6093
4726, 5006, 5039, 5038, 5005, 6095, 6128, 6127, 6094
4727, 5007, 5040, 5039, 5006, 6096, 6129, 6128, 6095
4728, 5008, 5041, 5040, 5007, 6097, 6130, 6129, 6096
4729, 5009, 5042, 5041, 5008, 6098, 6131, 6130, 6097
4730, 5010, 5043, 5042, 5009, 6099, 6132, 6131, 6098
4731, 5011, 5044, 5043, 5010, 6100, 6133, 6132, 6099
4732, 5012, 5045, 5044, 5011, 6101, 6134, 6133, 6100
4733, 5013, 5046, 5045, 5012, 6102, 6135, 6134, 6101
4734, 5014, 5047, 5046, 5013, 6103, 6136, 6135, 6102
4735, 5015, 5048, 5047, 5014, 6104, 6137, 6136, 6103
4736, 5016, 5049, 5048, 5015, 6105, 6138, 6137, 6104
4737, 5018, 5051, 5050, 5017, 6107, 6140, 6139, 6106
4738, 5019, 5052, 5051, 5018, 6108, 6141, 6140, 6107
4739, 5020, 5053, 5052, 5019, 6109, 6142, 6141, 6108
4740, 5021, 5054, 5053, 5020, 6110, 6143, 6142, 6109
4741, 5022, 5055, 5054, 5021, 6111, 6144, 6143, 6110
4742, 5023, 5056, 5055, 5022, 6112, 6145, 6144, 6111
4743, 5024, 5057, 5056, 5023, 6113, 6146, 6145, 6112
4744, 5025, 5058, 5057, 5024, 6114, 6147, 6146, 6113
4745, 5026, 5059, 5058, 5025, 6115, 6148, 6147, 6114
4746, 5027, 5060, 5059, 5026, 6116, 6149, 6148, 6115
4747, 5028, 5061, 5060, 5027, 6117, 6150, 6149, 6116
4748, 5029, 5062, 5061, 5028, 6118, 6151, 6150, 6117
4749, 5030, 5063, 5062, 5029, 6119, 6152, 6151, 6118
4750, 5031, 5064, 5063, 5030, 6120, 6153, 6152, 6119
4751, 5032, 5065, 5064, 5031, 6121, 6154, 6153, 6120
4752, 5033, 5066, 5065, 5032, 6122, 6155, 6154, 6121
4753, 5034, 5067, 5066, 5033, 6123, 6156, 6155, 6122
4754, 5035, 5068, 5067, 5034, 6124, 6157, 6156, 6123
4755, 5036, 5069, 5068, 5035, 6125, 6158, 6157, 6124
4756, 5037, 5070, 5069, 5036, 6126, 6159, 6158, 6125
4757, 5038, 5071, 5070, 5037, 6127, 6160, 6159, 6126
4758, 5039, 5072, 5071, 5038, 6128, 6161, 6160, 6127
4759, 5040, 5073, 5072, 5039, 6129, 6162, 6161, 6128
4760, 5041, 5074, 5073, 5040, 6130, 6163, 6162, 6129
4761, 5042, 5075, 5074, 5041, 6131, 6164, 6163, 6130
4762, 5043, 5076, 5075, 5042, 6132, 6165, 6164, 6131
4763, 5044, 5077, 5076, 5043, 6133, 6166, 6165, 6132
4764, 5045, 5078, 5077, 5044, 6134, 6167, 6166, 6133
4765, 5046, 5079, 5078, 5045, 6135, 6168, 6167, 6134
4766, 5047, 5080, 5079, 5046, 6136, 6169, 6168, 6135
4767, 5048, 5081, 5080, 5047, 6137, 6170, 6169, 6136
4768, 5049, 5082, 5081, 5048, 6138, 6171, 6170, 6137
4769, 5051, 5084, 5083, 5050, 6140, 6173, 6172, 6139
4770, 5052, 5085, 5084, 5051, 6141, 6174, 6173, 6140
4771, 5053, 5086, 5085, 5052, 6142, 6175, 6174, 6141
4772, 5054, 5087, 5086, 5053, 6143, 6176, 6175, 6142
4773, 5055, 5088, 5087, 5054, 6144, 6177, 6176, 6143
4774, 5056, 5089, 5088, 5055, 6145, 6178, 6177, 6144
4775, 5057, 5090, 5089, 5056, 6146, 6179, 6178, 6145
4776, 5058, 5091, 5090, 5057, 6147, 6180, 6179, 6146
4777, 5059, 5092, 5091, 5058, 6148, 6181, 6180, 6147
4778, 5060, 5093, 5092, 5059, 6149, 6182, 6181, 6148
4779, 5061, 5094, 5093, 5060, 6150, 6183, 6182, 6149
4780, 5062, 5095, 5094, 5061, 6151, 6184, 6183, 6150
4781, 5063, 5096, 5095, 5062, 6152, 6185, 6184, 6151
4782, 5064, 5097, 5096, 5063, 6153, 6186, 6185, 6152
4783, 5065, 5098, 5097, 5064, 6154, 6187, 6186, 6153
4784, 5066, 5099, 5098, 5065, 6155, 6188, 6187, 6154
4785, 5067, 5100, 5099, 5066, 6156, 6189, 6188, 6155
4786, 5068, 5101, 5100, 5067, 6157, 6190, 6189, 6156
4787, 5069, 5102, 5101, 5068, 6158, 6191, 6190, 6157
4788, 5070, 5103, 5102, 5069, 6159, 6192, 6191, 6158
4789, 5071, 5104, 5103, 5070, 6160, 6193, 6192, 6159
4790, 5072, 5105, 5104, 5071, 6161, 6194, 6193, 6160
4791, 5073, 5106, 5105, 5072, 6162, 6195, 6194, 6161
4792, 5074, 5107, 5106, 5073, 6163, 6196, 6195, 6162
4793, 5075, 5108, 5107, 5074, 6164, 6197, 6196, 6163
4794, 5076, 5109, 5108, 5075, 6165, 6198, 6197, 6164
4795, 5077, 5110, 5109, 5076, 6166, 6199, 6198, 6165
4796, 5078, 5111, 5110, 5077, 6167, 6200, 6199, 6166
4797, 5079, 5112, 5111, 5078, 6168, 6201, 6200, 6167
4798, 5080, 5113, 5112, 5079, 6169, 6202, 6201, 6168
4799, 5081, 5114, 5113, 5080, 6170, 6203, 6202, 6169
4800, 5082, 5115, 5114, 5081, 6171, 6204, 6203, 6170
4801, 5084, 5117, 5116, 5083, 6173, 6206, 6205, 6172
4802, 5085, 5118, 5117, 5084, 6174, 6207, 6206, 6173
4803, 5086, 5119, 5118, 5085, 6175, 6208, 6207, 6174
4804, 5087, 5120, 5119, 5086, 6176, 6209, 6208, 6175
4805, 5088, 5121, 5120, 5087, 6177, 6210, 6209, 6176
4806, 5089, 5122, 5121, 5088, 6178, 6211, 6210, 6177
4807, 5090, 5123, 5122, 5089, 6179, 6212, 6211, 6178
4808, 5091, 5124, 5123, 5090, 6180, 6213, 6212, 6179
4809, 5092, 5125, 5124, 5091, 6181, 6214, 6213, 6180
4810, 5093, 5126, 5125, 5092, 6182, 6215, 6214, 6181
4811, 5094, 5127, 5126, 5093, 6183, 6216, 6215, 6182
4812, 5095, 5128, 5127, 5094, 6184, 6217, 6216, 6183
4813, 5096, 5129, 5128, 5095, 6185, 6218, 6217, 6184
4814, 5097, 5130, 5129, 5096, 6186, 6219, 6218, 6185
4815, 5098, 5131, 5130, 5097, 6187, 6220, 6219, 6186
4816, 5099, 5132, 5131, 5098, 6188, 6221, 6220, 6187
4817, 5100, 5133, 5132, 5099, 6189, 6222, 6221, 6188
4818, 5101, 5134, 5133, 5100, 6190, 6223, 6222, 6189
4819, 5102, 5135, 5134, 5101, 6191, 6224, 6223, 6190
4820, 5103, 5136, 5135, 5102, 6192, 6225, 6224, 6191
4821, 5104, 5137, 5136, 5103, 6193, 6226, 6225, 6192
4822, 5105, 5138, 5137, 5104, 6194, 6227, 6226, 6193
4823, 5106, 5139, 5138, 5105, 6195, 6228, 6227, 6194
4824, 5107, 5140, 5139, 5106, 6196, 6229, 6228, 6195
4825, 5108, 5141, 5140, 5107, 6197, 6230, 6229, 6196
4826, 5109, 5142, 5141, 5108, 6198, 6231, 6230, 6197
4827, 5110, 5143, 5142, 5109, 6199, 6232, 6231, 6198
4828, 5111, 5144, 5143, 5110, 6200, 6233, 6232, 6199
4829, 5112, 5145, 5144, 5111, 6201, 6234, 6233, 6200
4830, 5113, 5146, 5145, 5112, 6202, 6235, 6234, 6201
4831, 5114, 5147, 5146, 5113, 6203, 6236, 6235, 6202
4832, 5115, 5148, 5147, 5114, 6204, 6237, 6236, 6203
4833, 5117, 5150, 5149, 5116, 6206, 6239, 6238, 6205
4834, 5118, 5151, 5150, 5117, 6207, 6240, 6239, 6206
4835, 5119, 5152, 5151, 5118, 6208, 6241, 6240, 6207
4836, 5120, 5153, 5152, 5119, 6209, 6242, 6241, 6208
4837, 5121, 5154, 5153, 5120, 6210, 6243, 6242, 6209
4838, 5122, 5155, 5154, 5121, 6211, 6244, 6243, 6210
4839, 5123, 5156, 5155, 5122, 6212, 6245, 6244, 6211
4840, 5124, 5157, 5156, 5123, 6213, 6246, 6245, 6212
4841, 5125, 5158, 5157, 5124, 6214, 6247, 6246, 6213
4842, 5126, 5159, 5158, 5125, 6215, 6248, 6247, 6214
4843, 5127, 5160, 5159, 5126, 6216, 6249, 6248, 6215
4844, 5128, 5161, 5160, 5127, 6217, 6250, 6249, 6216
4845, 5129, 5162, 5161, 5128, 6218, 6251, 6250, 6217
4846, 5130, 5163, 5162, 5129, 6219, 6252, 6251, 6218
4847, 5131, 5164, 5163, 5130, 6220, 6253, 6252, 6219
4848, 5132, 5165, 5164, 5131, 6221, 6254, 6253, 6220
4849, 5133, 5166, 5165, 5132, 6222, 6255, 6254, 6221
4850, 5134, 5167, 5166, 5133, 6223, 6256, 6255, 6222
4851, 5135, 5168, 5167, 5134, 6224, 6257, 6256, 6223
4852, 5136, 5169, 5168, 5135, 6225, 6258, 6257, 6224
4853, 5137, 5170, 5169, 5136, 6226, 6259, 6258, 6225
4854, 5138, 5171, 5170, 5137, 6227, 6260, 6259, 6226
4855, 5139, 5172, 5171, 5138, 6228, 6261, 6260, 6227
4856, 5140, 5173, 5172, 5139, 6229, 6262, 6261, 6228
4857, 5141, 5174, 5173, 5140, 6230, 6263, 6262, 6229
4858, 5142, 5175, 5174, 5141, 6231, 6264, 6263, 6230
4859, 5143, 5176, 5175, 5142, 6232, 6265, 6264, 6231
4860, 5144, 5177, 5176, 5143, 6233, 6266, 6265, 6232
4861, 5145, 5178, 5177, 5144, 6234, 6267, 6266, 6233
4862, 5146, 5179, 5178, 5145, 6235, 6268, 6267, 6234
4863, 5147, 5180, 5179, 5146, 6236, 6269, 6268, 6235
4864, 5148, 5181, 5180, 5147, 6237, 6270, 6269, 6236
4865, 5150, 5183, 5182, 5149, 6239, 6272, 6271, 6238
4866, 5151, 5184, 5183, 5150, 6240, 6273, 6272, 6239
4867, 5152, 5185, 5184, 5151, 6241, 6274, 6273, 6240
4868, 5153, 5186, 5185, 5152, 6242, 6275, 6274, 6241
4869, 5154, 5187, 5186, 5153, 6243, 6276, 6275, 6242
4870, 5155, 5188, 5187, 5154, 6244, 6277, 6276, 6243
4871, 5156, 5189, 5188, 5155, 6245, 6278, 6277, 6244
4872, 5157, 5190, 5189, 5156, 6246, 6279, 6278, 6245
4873, 5158, 5191, 5190, 5157, 6247, 6280, 6279, 6246
4874, 5159, 5192, 5191, 5158, 6248, 6281, 6280, 6247
4875, 5160, 5193, 5192, 5159, 6249, 6282, 6281, 6248
4876, 5161, 5194, 5193, 5160, 6250, 6283, 6282, 6249
4877, 5162, 5195, 5194, 5161, 6251, 6284, 6283, 6250
4878, 5163, 5196, 5195, 5162, 6252, 6285, 6284, 6251
4879, 5164, 5197, 5196, 5163, 6253, 6286, 6285, 6252
4880, 5165, 5198, 5197, 5164, 6254, 6287, 6286, 6253
4881, 5166, 5199, 5198, 5165, 6255, 6288, 6287, 6254
4882, 5167, 5200, 5199, 5166, 6256, 6289, 6288, 6255
4883, 5168, 5201, 5200, 5167, 6257, 6290, 6289, 6256
4884, 5169, 5202, 5201, 5168, 6258, 6291, 6290, 6257
4885, 5170, 5203, 5202, 5169, 6259, 6292, 6291, 6258
4886, 5171, 5204, 5203, 5170, 6260, 6293, 6292, 6259
4887, 5172, 5205, 5204, 5171, 6261, 6294, 6293, 6260
4888, 5173, 5206, 5205, 5172, 6262, 6295, 6294, 6261
4889, 5174, 5207, 5206, 5173, 6263, 6296, 6295, 6262
4890, 5175, 5208, 5207, 5174, 6264, 6297, 6296, 6263
4891, 5176, 5209, 5208, 5175, 6265, 6298, 6297, 6264
4892, 5177, 5210, 5209, 5176, 6266, 6299, 6298, 6265
4893, 5178, 5211, 5210, 5177, 6267, 6300, 6299, 6266
4894, 5179, 5212, 5211, 5178, 6268, 6301, 6300, 6267
4895, 5180, 5213, 5212, 5179, 6269, 6302, 6301, 6268
4896, 5181, 5214, 5213, 5180, 6270, 6303, 6302, 6269
4897, 5183, 5216, 5215, 5182, 6272, 6305, 6304, 6271
4898, 5184, 5217, 5216, 5183, 6273, 6306, 6305, 6272
4899, 5185, 5218, 5217, 5184, 6274, 6307, 6306, 6273
4900, 5186, 5219, 5218, 5185, 6275, 6308, 6307, 6274
4901, 5187, 5220, 5219, 5186, 6276, 6309, 6308, 6275
4902, 5188, 5221, 5220, 5187, 6277, 6310, 6309, 6276
4903, 5189, 5222, 5221, 5188, 6278, 6311, 6310, 6277
4904, 5190, 5223, 5222, 5189, 6279, 6312, 6311, 6278
4905, 5191, 5224, 5223, 5190, 6280, 6313, 6312, 6279
4906, 5192, 5225, 5224, 5191, 6281, 6314, 6313, 6280
4907, 5193, 5226, 5225, 5192, 6282, 6315, 6314, 6281
4908, 5194, 5227, 5226, 5193, 6283, 6316, 6315, 6282
4909, 5195, 5228, 5227, 5194, 6284, 6317, 6316, 6283
4910, 5196, 5229, 5228, 5195, 6285, 6318, 6317, 6284
4911, 5197, 5230, 5229, 5196, 6286, 6319, 6318, 6285
4912, 5198, 5231, 5230, 5197, 6287, 6320, 6319, 6286
4913, 5199, 5232, 5231, 5198, 6288, 6321, 6320, 6287
4914, 5200, 5233, 5232, 5199, 6289, 6322, 6321, 6288
4915, 5201, 5234, 5233, 5200, 6290, 6323, 6322, 6289
4916, 5202, 5235, 5234, 5201, 6291, 6324, 6323, 6290
4917, 5203, 5236, 5235, 5202, 6292, 6325, 6324, 6291
4918, 5204, 5237, 5236, 5203, 6293, 6326, 6325, 6292
4919, 5205, 5238, 5237, 5204, 6294, 6327, 6326, 6293
4920, 5206, 5239, 5238, 5205, 6295, 6328, 6327, 6294
4921, 5207, 5240, 5239, 5206, 6296, 6329, 6328, 6295
4922, 5208, 5241, 5240, 5207, 6297, 6330, 6329, 6296
4923, 5209, 5242, 5241, 5208, 6298, 6331, 6330, 6297
4924, 5210, 5243, 5242, 5209, 6299, 6332, 6331, 6298
4925, 5211, 5244, 5243, 5210, 6300, 6333, 6332, 6299
4926, 5212, 5245, 5244, 5211, 6301, 6334, 6333, 6300
4927, 5213, 5246, 5245, 5212, 6302, 6335, 6334, 6301
4928, 5214, 5247, 5246, 5213, 6303, 6336, 6335, 6302
4929, 5216, 5249, 5248, 5215, 6305, 6338, 6337, 6304
4930, 5217, 5250, 5249, 5216, 6306, 6339, 6338, 6305
4931, 5218, 5251, 5250, 5217, 6307, 6340, 6339, 6306
4932, 5219, 5252, 5251, 5218, 6308, 6341, 6340, 6307
4933, 5220, 5253, 5252, 5219, 6309, 6342, 6341, 6308
4934, 5221, 5254, 5253, 5220, 6310, 6343, 6342, 6309
4935, 5222, 5255, 5254, 5221, 6311, 6344, 6343, 6310
4936, 5223, 5256, 5255, 5222, 6312, 6345, 6344, 6311
4937, 5224, 5257, 5256, 5223, 6313, 6346, 6345, 6312
4938, 5225, 5258, 5257, 5224, 6314, 6347, 6346, 6313
4939, 5226, 5259, 5258, 5225, 6315, 6348, 6347, 6314
4940, 5227, 5260, 5259, 5226, 6316, 6349, 6348, 6315
4941, 5228, 5261, 5260, 5227, 6317, 6350, 6349, 6316
4942, 5229, 5262, 5261, 5228, 6318, 6351, 6350, 6317
4943, 5230, 5263, 5262, 5229, 6319, 6352, 6351, 6318
4944, 5231, 5264, 5263, 5230, 6320, 6353, 6352, 6319
4945, 5232, 5265, 5264, 5231, 6321, 6354, 6353, 6320
4946, 5233, 5266, 5265, 5232, 6322, 6355, 6354, 6321
4947, 5234, 5267, 5266, 5233, 6323, 6356, 6355, 6322
4948, 5235, 5268, 5267, 5234, 6324, 6357, 6356, 6323
4949, 5236, 5269, 5268, 5235, 6325, 6358, 6357, 6324
4950, 5237, 5270, 5269, 5236, 6326, 6359, 6358, 6325
4951, 5238, 5271, 5270, 5237, 6327, 6360, 6359, 6326
4952, 5239, 5272, 5271, 5238, 6328, 6361, 6360, 6327
4953, 5240, 5273, 5272, 5239, 6329, 6362, 6361, 6328
4954, 5241, 5274, 5273, 5240, 6330, 6363, 6362, 6329
4955, 5242, 5275, 5274, 5241, 6331, 6364, 6363, 6330
4956, 5243, 5276, 5275, 5242, 6332, 6365, 6364, 6331
4957, 5244, 5277, 5276, 5243, 6333, 6366, 6365, 6332
4958, 5245, 5278, 5277, 5244, 6334, 6367, 6366, 6333
4959, 5246, 5279, 5278, 5245, 6335, 6368, 6367, 6334
4960, 5247, 5280, 5279, 5246, 6336, 6369, 6368, 6335
4961, 5249, 5282, 5281, 5248, 6338, 6371, 6370, 6337
4962, 5250, 5283, 5282, 5249, 6339, 6372, 6371, 6338
4963, 5251, 5284, 5283, 5250, 6340, 6373, 6372, 6339
4964, 5252, 5285, 5284, 5251, 6341, 6374, 6373, 6340
4965, 5253, 5286, 5285, 5252, 6342, 6375, 6374, 6341
4966, 5254, 5287, 5286, 5253, 6343, 6376, 6375, 6342
4967, 5255, 5288, 5287, 5254, 6344, 6377, 6376, 6343
4968, 5256, 5289, 5288, 5255, 6345, 6378, 6377, 6344
4969, 5257, 5290, 5289, 5256, 6346, 6379, 6378, 6345
4970, 5258, 5291, 5290, 5257, 6347, 6380, 6379, 6346
4971, 5259, 5292, 5291, 5258, 6348, 6381, 6380, 6347
4972, 5260, 5293, 5292, 5259, 6349, 6382, 6381, 6348
4973, 5261, 5294, 5293, 5260, 6350, 6383, 6382, 6349
4974, 5262, 5295, 5294, 5261, 6351, 6384, 6383, 6350
4975, 5263, 5296, 5295, 5262, 6352, 6385, 6384, 6351
4976, 5264, 5297, 5296, 5263, 6353, 6386, 6385, 6352
4977, 5265, 5298, 5297, 5264, 6354, 6387, 6386, 6353
4978, 5266, 5299, 5298, 5265, 6355, 6388, 6387, 6354
4979, 5267, 5300, 5299, 5266, 6356, 6389, 6388, 6355
4980, 5268, 5301, 5300, 5267, 6357, 6390, 6389, 6356
4981, 5269, 5302, 5301, 5268, 6358, 6391, 6390, 6357
4982, 5270, 5303, 5302, 5269, 6359, 6392, 6391, 6358
4983, 5271, 5304, 5303, 5270, 6360, 6393, 6392, 6359
4984, 5272, 5305, 5304, 5271, 6361, 6394, 6393, 6360
4985, 5273, 5306, 5305, 5272, 6362, 6395, 6394, 6361
4986, 5274, 5307, 5306, 5273, 6363, 6396, 6395, 6362
4987, 5275, 5308, 5307, 5274, 6364, 6397, 6396, 6363
4988, 5276, 5309, 5308, 5275, 6365, 6398, 6397, 6364
4989, 5277, 5310, 5309, 5276, 6366, 6399, 6398, 6365
4990, 5278, 5311, 5310, 5277, 6367, 6400, 6399, 6366
4991, 5279, 5312, 5311, 5278, 6368, 6401, 6400, 6367
4992, 5280, 5313, 5312, 5279, 6369, 6402, 6401, 6368
4993, 5282, 5315, 5314, 5281, 6371, 6404, 6403, 6370
4994, 5283, 5316, 5315, 5282, 6372, 6405, 6404, 6371
4995, 5284, 5317, 5316, 5283, 6373, 6406, 6405, 6372
4996, 5285, 5318, 5317, 5284, 6374, 6407, 6406, 6373
4997, 5286, 5319, 5318, 5285, 6375, 6408, 6407, 6374
4998, 5287, 5320, 5319, 5286, 6376, 6409, 6408, 6375
4999, 5288, 5321, 5320, 5287, 6377, 6410, 6409, 6376
5000, 5289, 5322, 5321, 5288, 6378, 6411, 6410, 6377
5001, 5290, 5323, 5322, 5289, 6379, 6412, 6411, 6378
5002, 5291, 5324, 5323, 5290, 6380, 6413, 6412, 6379
5003, 5292, 5325, 5324, 5291, 6381, 6414, 6413, 6380
5004, 5293, 5326, 5325, 5292, 6382, 6415, 6414, 6381
5005, 5294, 5327, 5326, 5293, 6383, 6416, 6415, 6382
5006, 5295, 5328, 5327, 5294, 6384, 6417, 6416, 6383
5007, 5296, 5329, 5328, 5295, 6385, 6418, 6417, 6384
5008, 5297, 5330, 5329, 5296, 6386, 6419, 6418, 6385
5009, 5298, 5331, 5330, 5297, 6387, 6420, 6419, 6386
5010, 5299, 5332, 5331, 5298, 6388, 6421, 6420, 6387
5011, 5300, 5333, 5332, 5299, 6389, 6422, 6421, 6388
5012, 5301, 5334, 5333, 5300, 6390, 6423, 6422, 6389
5013, 5302, 5335, 5334, 5301, 6391, 6424, 6423, 6390
5014, 5303, 5336, 5335, 5302, 6392, 6425, 6424, 6391
5015, 5304, 5337, 5336, 5303, 6393, 6426, 6425, 6392
5016, 5305, 5338, 5337, 5304, 6394, 6427, 6426, 6393
5017, 5306, 5339, 5338, 5305, 6395, 6428, 6427, 6394
5018, 5307, 5340, 5339, 5306, 6396, 6429, 6428, 6395
5019, 5308, 5341, 5340, 5307, 6397, 6430, 6429, 6396
5020, 5309, 5342, 5341, 5308, 6398, 6431, 6430, 6397
5021, 5310, 5343, 5342, 5309, 6399, 6432, 6431, 6398
5022, 5311, 5344, 5343, 5310, 6400, 6433, 6432, 6399
5023, 5312, 5345, 5344, 5311, 6401, 6434, 6433, 6400
5024, 5313, 5346, 5345, 5312, 6402, 6435, 6434, 6401
5025, 5315, 5348, 5347, 5314, 6404, 6437, 6436, 6403
5026, 5316, 5349, 5348, 5315, 6405, 6438, 6437, 6404
5027, 5317, 5350, 5349, 5316, 6406, 6439, 6438, 6405
5028, 5318, 5351, 5350, 5317, 6407, 6440, 6439, 6406
5029, 5319, 5352, 5351, 5318, 6408, 6441, 6440, 6407
5030, 5320, 5353, 5352, 5319, 6409, 6442, 6441, 6408
5031, 5321, 5354, 5353, 5320, 6410, 6443, 6442, 6409
5032, 5322, 5355, 5354, 5321, 6411, 6444, 6443, 6410
5033, 5323, 5356, 5355, 5322, 6412, 6445, 6444, 6411
5034, 5324, 5357, 5356, 5323, 6413, 6446, 6445, 6412
5035, 5325, 5358, 5357, 5324, 6414, 6447, 6446, 6413
5036, 5326, 5359, 5358, 5325, 6415, 6448, 6447, 6414
5037, 5327, 5360, 5359, 5326, 6416, 6449, 6448, 6415
5038, 5328, 5361, 5360, 5327, 6417, 6450, 6449, 6416
5039, 5329, 5362, 5361, 5328, 6418, 6451, 6450, 6417
5040, 5330, 5363, 5362, 5329, 6419, 6452, 6451, 6418
5041, 5331, 5364, 5363, 5330, 6420, 6453, 6452, 6419
5042, 5332, 5365, 5364, 5331, 6421, 6454, 6453, 6420
5043, 5333, 5366, 5365, 5332, 6422, 6455, 6454, 6421
5044, 5334, 5367, 5366, 5333, 6423, 6456, 6455, 6422
5045, 5335, 5368, 5367, 5334, 6424, 6457, 6456, 6423
5046, 5336, 5369, 5368, 5335, 6425, 6458, 6457, 6424
5047, 5337, 5370, 5369, 5336, 6426, 6459, 6458, 6425
5048, 5338, 5371, 5370, 5337, 6427, 6460, 6459, 6426
5049, 5339, 5372, 5371, 5338, 6428, 6461, 6460, 6427
5050, 5340, 5373, 5372, 5339, 6429, 6462, 6461, 6428
5051, 5341, 5374, 5373, 5340, 6430, 6463, 6462, 6429
5052, 5342, 5375, 5374, 5341, 6431, 6464, 6463, 6430
5053, 5343, 5376, 5375, 5342, 6432, 6465, 6464, 6431
5054, 5344, 5377, 5376, 5343, 6433, 6466, 6465, 6432
5055, 5345, 5378, 5377, 5344, 6434, 6467, 6466, 6433
5056, 5346, 5379, 5378, 5345, 6435, 6468, 6467, 6434
5057, 5348, 5381, 5380, 5347, 6437, 6470, 6469, 6436
5058, 5349, 5382, 5381, 5348, 6438, 6471, 6470, 6437
5059, 5350, 5383, 5382, 5349, 6439, 6472, 6471, 6438
5060, 5351, 5384, 5383, 5350, 6440, 6473, 6472, 6439
5061, 5352, 5385, 5384, 5351, 6441, 6474, 6473, 6440
5062, 5353, 5386, 5385, 5352, 6442, 6475, 6474, 6441
5063, 5354, 5387, 5386, 5353, 6443, 6476, 6475, 6442
5064, 5355, 5388, 5387, 5354, 6444, 6477, 6476, 6443
5065, 5356, 5389, 5388, 5355, 6445, 6478, 6477, 6444
5066, 5357, 5390, 5389, 5356, 6446, 6479, 6478, 6445
5067, 5358, 5391, 5390, 5357, 6447, 6480, 6479, 6446
5068, 5359, 5392, 5391, 5358, 6448, 6481, 6480, 6447
5069, 5360, 5393, 5392, 5359, 6449, 6482, 6481, 6448
5070, 5361, 5394, 5393, 5360, 6450, 6483, 6482, 6449
5071, 5362, 5395, 5394, 5361, 6451, 6484, 6483, 6450
5072, 5363, 5396, 5395, 5362, 6452, 6485, 6484, 6451
5073, 5364, 5397, 5396, 5363, 6453, 6486, 6485, 6452
5074, 5365, 5398, 5397, 5364, 6454, 6487, 6486, 6453
5075, 5366, 5399, 5398, 5365, 6455, 6488, 6487, 6454
5076, 5367, 5400, 5399, 5366, 6456, 6489, 6488, 6455
5077, 5368, 5401, 5400, 5367, 6457, 6490, 6489, 6456
5078, 5369, 5402, 5401, 5368, 6458, 6491, 6490, 6457
5079, 5370, 5403, 5402, 5369, 6459, 6492, 6491, 6458
5080, 5371, 5404, 5403, 5370, 6460, 6493, 6492, 6459
5081, 5372, 5405, 5404, 5371, 6461, 6494, 6493, 6460
5082, 5373, 5406, 5405, 5372, 6462, 6495, 6494, 6461
5083, 5374, 5407, 5406, 5373, 6463, 6496, 6495, 6462
5084, 5375, 5408, 5407, 5374, 6464, 6497, 6496, 6463
5085, 5376, 5409, 5408, 5375, 6465, 6498, 6497, 6464
5086, 5377, 5410, 5409, 5376, 6466, 6499, 6498, 6465
5087, 5378, 5411, 5410, 5377, 6467, 6500, 6499, 6466
5088, 5379, 5412, 5411, 5378, 6468, 6501, 6500, 6467
5089, 5381, 5414, 5413, 5380, 6470, 6503, 6502, 6469
5090, 5382, 5415, 5414, 5381, 6471, 6504, 6503, 6470
5091, 5383, 5416, 5415, 5382, 6472, 6505, 6504, 6471
5092, 5384, 5417, 5416, 5383, 6473, 6506, 6505, 6472
5093, 5385, 5418, 5417, 5384, 6474, 6507, 6506, 6473
5094, 5386, 5419, 5418, 5385, 6475, 6508, 6507, 6474
5095, 5387, 5420, 5419, 5386, 6476, 6509, 6508, 6475
5096, 5388, 5421, 5420, 5387, 6477, 6510, 6509, 6476
5097, 5389, 5422, 5421, 5388, 6478, 6511, 6510, 6477
5098, 5390, 5423, 5422, 5389, 6479, 6512, 6511, 6478
5099, 5391, 5424, 5423, 5390, 6480, 6513, 6512, 6479
5100, 5392, 5425, 5424, 5391, 6481, 6514, 6513, 6480
5101, 5393, 5426, 5425, 5392, 6482, 6515, 6514, 6481
5102, 5394, 5427, 5426, 5393, 6483, 6516, 6515, 6482
5103, 5395, 5428, 5427, 5394, 6484, 6517, 6516, 6483
5104, 5396, 5429, 5428, 5395, 6485, 6518, 6517, 6484
5105, 5397, 5430, 5429, 5396, 6486, 6519, 6518, 6485
5106, 5398, 5431, 5430, 5397, 6487, 6520, 6519, 6486
5107, 5399, 5432, 5431, 5398, 6488, 6521, 6520, 6487
5108, 5400, 5433, 5432, 5399, 6489, 6522, 6521, 6488
5109, 5401, 5434, 5433, 5400, 6490, 6523, 6522, 6489
5110, 5402, 5435, 5434, 5401, 6491, 6524, 6523, 6490
5111, 5403, 5436, 5435, 5402, 6492, 6525, 6524, 6491
5112, 5404, 5437, 5436, 5403, 6493, 6526, 6525, 6492
5113, 5405, 5438, 5437, 5404, 6494, 6527, 6526, 6493
5114, 5406, 5439, 5438, 5405, 6495, 6528, 6527, 6494
5115, 5407, 5440, 5439, 5406, 6496, 6529, 6528, 6495
5116, 5408, 5441, 5440, 5407, 6497, 6530, 6529, 6496
5117, 5409, 5442, 5441, 5408, 6498, 6531, 6530, 6497
5118, 5410, 5443, 5442, 5409, 6499, 6532, 6531, 6498
5119, 5411, 5444, 5443, 5410, 6500, 6533, 6532, 6499
5120, 5412, 5445, 5444, 5411, 6501, 6534, 6533, 6500
5121, 5447, 5480, 5479, 5446, 6536, 6569, 6568, 6535
5122, 5448, 5481, 5480, 5447, 6537, 6570, 6569, 6536
5123, 5449, 5482, 5481, 5448, 6538, 6571, 6570, 6537
5124, 5450, 5483, 5482, 5449, 6539, 6572, 6571, 6538
5125, 5451, 5484, 5483, 5450, 6540, 6573, 6572, 6539
5126, 5452, 5485, 5484, 5451, 6541, 6574, 6573, 6540
5127, 5453, 5486, 5485, 5452, 6542, 6575, 6574, 6541
5128, 5454, 5487, 5486, 5453, 6543, 6576, 6575, 6542
5129, 5455, 5488, 5487, 5454, 6544, 6577, 6576, 6543
5130, 5456, 5489, 5488, 5455, 6545, 6578, 6577, 6544
5131, 5457, 5490, 5489, 5456, 6546, 6579, 6578, 6545
5132, 5458, 5491, 5490, 5457, 6547, 6580, 6579, 6546
5133, 5459, 5492, 5491, 5458, 6548, 6581, 6580, 6547
5134, 5460, 5493, 5492, 5459, 6549, 6582, 6581, 6548
5135, 5461, 5494, 5493, 5460, 6550, 6583, 6582, 6549
5136, 5462, 5495, 5494, 5461, 6551, 6584, 6583, 6550
5137, 5463, 5496, 5495, 5462, 6552, 6585, 6584, 6551
5138, 5464, 5497, 5496, 5463, 6553, 6586, 6585, 6552
5139, 5465, 5498, 5497, 5464, 6554, 6587, 6586, 6553
5140, 5466, 5499, 5498, 5465, 6555, 6588, 6587, 6554
5141, 5467, 5500, 5499, 5466, 6556, 6589, 6588, 6555
5142, 5468, 5501, 5500, 5467, 6557, 6590, 6589, 6556
5143, 5469, 5502, 5501, 5468, 6558, 6591, 6590, 6557
5144, 5470, 5503, 5502, 5469, 6559, 6592, 6591, 6558
5145, 5471, 5504, 5503, 5470, 6560, 6593, 6592, 6559
5146, 5472, 5505, 5504, 5471, 6561, 6594, 6593, 6560
5147, 5473, 5506, 5505, 5472, 6562, 6595, 6594, 6561
5148, 5474, 5507, 5506, 5473, 6563, 6596, 6595, 6562
5149, 5475, 5508, 5507, 5474, 6564, 6597, 6596, 6563
5150, 5476, 5509, 5508, 5475, 6565, 6598, 6597, 6564
5151, 5477, 5510, 5509, 5476, 6566, 6599, 6598, 6565
5152, 5478, 5511, 5510, 5477, 6567, 6600, 6599, 6566
5153, 5480, 5513, 5512, 5479, 6569, 6602, 6601, 6568
5154, 5481, 5514, 5513, 5480, 6570, 6603, 6602, 6569
5155, 5482, 5515, 5514, 5481, 6571, 6604, 6603, 6570
5156, 5483, 5516, 5515, 5482, 6572, 6605, 6604, 6571
5157, 5484, 5517, 5516, 5483, 6573, 6606, 6605, 6572
5158, 5485, 5518, 5517, 5484, 6574, 6607, 6606, 6573
5159, 5486, 5519, 5518, 5485, 6575, 6608, 6607, 6574
5160, 5487, 5520, 5519, 5486, 6576, 6609, 6608, 6575
5161, 5488, 5521, 5520, 5487, 6577, 6610, 6609, 6576
5162, 5489, 5522, 5521, 5488, 6578, 6611, 6610, 6577
5163, 5490, 5523, 5522, 5489, 6579, 6612, 6611, 6578
5164, 5491, 5524, 5523, 5490, 6580, 6613, 6612, 6579
5165, 5492, 5525, 5524, 5491, 6581, 6614, 6613, 6580
5166, 5493, 5526, 5525, 5492, 6582, 6615, 6614, 6581
5167, 5494, 5527, 5526, 5493, 6583, 6616, 6615, 6582
5168, 5495, 5528, 5527, 5494, 6584, 6617, 6616, 6583
5169, 5496, 5529, 5528, 5495, 6585, 6618, 6617, 6584
5170, 5497, 5530, 5529, 5496, 6586, 6619, 6618, 6585
5171, 5498, 5531, 5530, 5497, 6587, 6620, 6619, 6586
5172, 5499, 5532, 5531, 5498, 6588, 6621, 6620, 6587
5173, 5500, 5533, 5532, 5499, 6589, 6622, 6621, 6588
5174, 5501, 5534, 5533, 5500, 6590, 6623, 6622, 6589
5175, 5502, 5535, 5534, 5501, 6591, 6624, 6623, 6590
5176, 5503, 5536, 5535, 5502, 6592, 6625, 6624, 6591
5177, 5504, 5537, 5536, 5503, 6593, 6626, 6625, 6592
5178, 5505, 5538, 5537, 5504, 6594, 6627, 6626, 6593
5179, 5506, 5539, 5538, 5505, 6595, 6628, 6627, 6594
5180, 5507, 5540, 5539, 5506, 6596, 6629, 6628, 6595
5181, 5508, 5541, 5540, 5507, 6597, 6630, 6629, 6596
5182, 5509, 5542, 5541, 5508, 6598, 6631, 6630, 6597
5183, 5510, 5543, 5542, 5509, 6599, 6632, 6631, 6598
5184, 5511, 5544, 5543, 5510, 6600, 6633, 6632, 6599
5185, 5513, 5546, 5545, 5512, 6602, 6635, 6634, 6601
5186, 5514, 5547, 5546, 5513, 6603, 6636, 6635, 6602
5187, 5515, 5548, 5547, 5514, 6604, 6637, 6636, 6603
5188, 5516, 5549, 5548, 5515, 6605, 6638, 6637, 6604
5189, 5517, 5550, 5549, 5516, 6606, 6639, 6638, 6605
5190, 5518, 5551, 5550, 5517, 6607, 6640, 6639, 6606
5191, 5519, 5552, 5551, 5518, 6608, 6641, 6640, 6607
5192, 5520, 5553, 5552, 5519, 6609, 6642, 6641, 6608
5193, 5521, 5554, 5553, 5520, 6610, 6643, 6642, 6609
5194, 5522, 5555, 5554, 5521, 6611, 6644, 6643, 6610
5195, 5523, 5556, 5555, 5522, 6612, 6645, 6644, 6611
5196, 5524, 5557, 5556, 5523, 6613, 6646, 6645, 6612
5197, 5525, 5558, 5557, 5524, 6614, 6647, 6646, 6613
5198, 5526, 5559, 5558, 5525, 6615, 6648, 6647, 6614
5199, 5527, 5560, 5559, 5526, 6616, 6649, 6648, 6615
5200, 5528, 5561, 5560, 5527, 6617, 6650, 6649, 6616
5201, 5529, 5562, 5561, 5528, 6618, 6651, 6650, 6617
5202, 5530, 5563, 5562, 5529, 6619, 6652, 6651, 6618
5203, 5531, 5564, 5563, 5530, 6620, 6653, 6652, 6619
5204, 5532, 5565, 5564, 5531, 6621, 6654, 6653, 6620
5205, 5533, 5566, 5565, 5532, 6622, 6655, 6654, 6621
5206, 5534, 5567, 5566, 5533, 6623, 6656, 6655, 6622
5207, 5535, 5568, 5567, 5534, 6624, 6657, 6656, 6623
5208, 5536, 5569, 5568, 5535, 6625, 6658, 6657, 6624
5209, 5537, 5570, 5569, 5536, 6626, 6659, 6658, 6625
5210, 5538, 5571, 5570, 5537, 6627, 6660, 6659, 6626
5211, 5539, 5572, 5571, 5538, 6628, 6661, 6660, 6627
5212, 5540, 5573, 5572, 5539, 6629, 6662, 6661, 6628
5213, 5541, 5574, 5573, 5540, 6630, 6663, 6662, 6629
5214, 5542, 5575, 5574, 5541, 6631, 6664, 6663, 6630
5215, 5543, 5576, 5575, 5542, 6632, 6665, 6664, 6631
5216, 5544, 5577, 5576, 5543, 6633, 6666, 6665, 6632
5217, 5546, 5579, 5578, 5545, 6635, 6668, 6667, 6634
5218, 5547, 5580, 5579, 5546, 6636, 6669, 6668, 6635
5219, 5548, 5581, 5580, 5547, 6637, 6670, 6669, 6636
5220, 5549, 5582, 5581, 5548, 6638, 6671, 6670, 6637
5221, 5550, 5583, 5582, 5549, 6639, 6672, 6671, 6638
5222, 5551, 5584, 5583, 5550, 6640, 6673, 6672, 6639
5223, 5552, 5585, 5584, 5551, 6641, 6674, 6673, 6640
5224, 5553, 5586, 5585, 5552, 6642, 6675, 6674, 6641
5225, 5554, 5587, 5586, 5553, 6643, 6676, 6675, 6642
5226, 5555, 5588, 5587, 5554, 6644, 6677, 6676, 6643
5227, 5556, 5589, 5588, 5555, 6645, 6678, 6677, 6644
5228, 5557, 5590, 5589, 5556, 6646, 6679, 6678, 6645
5229, 5558, 5591, 5590, 5557, 6647, 6680, 6679, 6646
5230, 5559, 5592, 5591, 5558, 6648, 6681, 6680, 6647
5231, 5560, 5593, 5592, 5559, 6649, 6682, 6681, 6648
5232, 5561, 5594, 5593, 5560, 6650, 6683, 6682, 6649
5233, 5562, 5595, 5594, 5561, 6651, 6684, 6683, 6650
5234, 5563, 5596, 5595, 5562, 6652, 6685, 6684, 6651
5235, 5564, 5597, 5596, 5563, 6653, 6686, 6685, 6652
5236, 5565, 5598, 5597, 5564, 6654, 6687, 6686, 6653
5237, 5566, 5599, 5598, 5565, 6655, 6688, 6687, 6654
5238, 5567, 5600, 5599, 5566, 6656, 6689, 6688, 6655
5239, 5568, 5601, 5600, 5567, 6657, 6690, 6689, 6656
5240, 5569, 5602, 5601, 5568, 6658, 6691, 6690, 6657
5241, 5570, 5603, 5602, 5569, 6659, 6692, 6691, 6658
5242, 5571, 5604, 5603, 5570, 6660, 6693, 6692, 6659
5243, 5572, 5605, 5604, 5571, 6661, 6694, 6693, 6660
5244, 5573, 5606, 5605, 5572, 6662, 6695, 6694, 6661
5245, 5574, 5607, 5606, 5573, 6663, 6696, 6695, 6662
5246, 5575, 5608, 5607, 5574, 6664, 6697, 6696, 6663
5247, 5576, 5609, 5608, 5575, 6665, 6698, 6697, 6664
5248, 5577, 5610, 5609, 5576, 6666, 6699, 6698, 6665
5249, 5579, 5612, 5611, 5578, 6668, 6701, 6700, 6667
5250, 5580, 5613, 5612, 5579, 6669, 6702, 6701, 6668
5251, 5581, 5614, 5613, 5580, 6670, 6703, 6702, 6669
5252, 5582, 5615, 5614, 5581, 6671, 6704, 6703, 6670
5253, 5583, 5616, 5615, 5582, 6672, 6705, 6704, 6671
5254, 5584, 5617, 5616, 5583, 6673, 6706, 6705, 6672
5255, 5585, 5618, 5617, 5584, 6674, 6707, 6706, 6673
5256, 5586, 5619, 5618, 5585, 6675, 6708, 6707, 6674
5257, 5587, 5620, 5619, 5586, 6676, 6709, 6708, 6675
5258, 5588, 5621, 5620, 5587, 6677, 6710, 6709, 6676
5259, 5589, 5622, 5621, 5588, 6678, 6711, 6710, 6677
5260, 5590, 5623, 5622, 5589, 6679, 6712, 6711, 6678
5261, 5591, 5624, 5623, 5590, 6680, 6713, 6712, 6679
5262, 5592, 5625, 5624, 5591, 6681, 6714, 6713, 6680
5263, 5593, 5626, 5625, 5592, 6682, 6715, 6714, 6681
5264, 5594, 5627, 5626, 5593, 6683, 6716, 6715, 6682
5265, 5595, 5628, 5627, 5594, 6684, 6717, 6716, 6683
5266, 5596, 5629, 5628, 5595, 6685, 6718, 6717, 6684
5267, 5597, 5630, 5629, 5596, 6686, 6719, 6718, 6685
5268, 5598, 5631, 5630, 5597, 6687, 6720, 6719, 6686
5269, 5599, 5632, 5631, 5598, 6688, 6721, 6720, 6687
5270, 5600, 5633, 5632, 5599, 6689, 6722, 6721, 6688
5271, 5601, 5634, 5633, 5600, 6690, 6723, 6722, 6689
5272, 5602, 5635, 5634, 5601, 6691, 6724, 6723, 6690
5273, 5603, 5636, 5635, 5602, 6692, 6725, 6724, 6691
5274, 5604, 5637, 5636, 5603, 6693, 6726, 6725, 6692
5275, 5605, 5638, 5637, 5604, 6694, 6727, 6726, 6693
5276, 5606, 5639, 5638, 5605, 6695, 6728, 6727, 6694
5277, 5607, 5640, 5639, 5606, 6696, 6729, 6728, 6695
5278, 5608, 5641, 5640, 5607, 6697, 6730, 6729, 6696
5279, 5609, 5642, 5641, 5608, 6698, 6731, 6730, 6697
5280, 5610, 5643, 5642, 5609, 6699, 6732, 6731, 6698
5281, 5612, 5645, 5644, 5611, 6701, 6734, 6733, 6700
5282, 5613, 5646, 5645, 5612, 6702, 6735, 6734, 6701
5283, 5614, 5647, 5646, 5613, 6703, 6736, 6735, 6702
5284, 5615, 5648, 5647, 5614, 6704, 6737, 6736, 6703
5285, 5616, 5649, 5648, 5615, 6705, 6738, 6737, 6704
5286, 5617, 5650, 5649, 5616, 6706, 6739, 6738, 6705
5287, 5618, 5651, 5650, 5617, 6707, 6740, 6739, 6706
5288, 5619, 5652, 5651, 5618, 6708, 6741, 6740, 6707
5289, 5620, 5653, 5652, 5619, 6709, 6742, 6741, 6708
5290, 5621, 5654, 5653, 5620, 6710, 6743, 6742, 6709
5291, 5622, 5655, 5654, 5621, 6711, 6744, 6743, 6710
5292, 5623, 5656, 5655, 5622, 6712, 6745, 6744, 6711
5293, 5624, 5657, 5656, 5623, 6713, 6746, 6745, 6712
5294, 5625, 5658, 5657, 5624, 6714, 6747, 6746, 6713
5295, 5626, 5659, 5658, 5625, 6715, 6748, 6747, 6714
5296, 5627, 5660, 5659, 5626, 6716, 6749, 6748, 6715
5297, 5628, 5661, 5660, 5627, 6717, 6750, 6749, 6716
5298, 5629, 5662, 5661, 5628, 6718, 6751, 6750, 6717
5299, 5630, 5663, 5662, 5629, 6719, 6752, 6751, 6718
5300, 5631, 5664, 5663, 5630, 6720, 6753, 6752, 6719
5301, 5632, 5665, 5664, 5631, 6721, 6754, 6753, 6720
5302, 5633, 5666, 5665, 5632, 6722, 6755, 6754, 6721
5303, 5634, 5667, 5666, 5633, 6723, 6756, 6755, 6722
5304, 5635, 5668, 5667, 5634, 6724, 6757, 6756, 6723
5305, 5636, 5669, 5668, 5635, 6725, 6758, 6757, 6724
5306, 5637, 5670, 5669, 5636, 6726, 6759, 6758, 6725
5307, 5638, 5671, 5670, 5637, 6727, 6760, 6759, 6726
5308, 5639, 5672, 5671, 5638, 6728, 6761, 6760, 6727
5309, 5640, 5673, 5672, 5639, 6729, 6762, 6761, 6728
5310, 5641, 5674, 5673, 5640, 6730, 6763, 6762, 6729
5311, 5642, 5675, 5674, 5641, 6731, 6764, 6763, 6730
5312, 5643, 5676, 5675, 5642, 6732, 6765, 6764, 6731
5313, 5645, 5678, 5677, 5644, 6734, 6767, 6766, 6733
5314, 5646, 5679, 5678, 5645, 6735, 6768, 6767, 6734
5315, 5647, 5680, 5679, 5646, 6736, 6769, 6768, 6735
5316, 5648, 5681, 5680, 5647, 6737, 6770, 6769, 6736
5317, 5649, 5682, 5681, 5648, 6738, 6771, 6770, 6737
5318, 5650, 5683, 5682, 5649, 6739, 6772, 6771, 6738
5319, 5651, 5684, 5683, 5650, 6740, 6773, 6772, 6739
5320, 5652, 5685, 5684, 5651, 6741, 6774, 6773, 6740
5321, 5653, 5686, 5685, 5652, 6742, 6775, 6774, 6741
5322, 5654, 5687, 5686, 5653, 6743, 6776, 6775, 6742
5323, 5655, 5688, 5687, 5654, 6744, 6777, 6776, 6743
5324, 5656, 5689, 5688, 5655, 6745, 6778, 6777, 6744
5325, 5657, 5690, 5689, 5656, 6746, 6779, 6778, 6745
5326, 5658, 5691, 5690, 5657, 6747, 6780, 6779, 6746
5327, 5659, 5692, 5691, 5658, 6748, 6781, 6780, 6747
5328, 5660, 5693, 5692, 5659, 6749, 6782, 6781, 6748
5329, 5661, 5694, 5693, 5660, 6750, 6783, 6782, 6749
5330, 5662, 5695, 5694, 5661, 6751, 6784, 6783, 6750
5331, 5663, 5696, 5695, 5662, 6752, 6785, 6784, 6751
5332, 5664, 5697, 5696, 5663, 6753, 6786, 6785, 6752
5333, 5665, 5698, 5697, 5664, 6754, 6787, 6786, 6753
5334, 5666, 5699, 5698, 5665, 6755, 6788, 6787, 6754
5335, 5667, 5700, 5699, 5666, 6756, 6789, 6788, 6755
5336, 5668, 5701, 5700, 5667, 6757, 6790, 6789, 6756
5337, 5669, 5702, 5701, 5668, 6758, 6791, 6790, 6757
5338, 5670, 5703, 5702, 5669, 6759, 6792, 6791, 6758
5339, 5671, 5704, 5703, 5670, 6760, 6793, 6792, 6759
5340, 5672, 5705, 5704, 5671, 6761, 6794, 6793, 6760
5341, 5673, 5706, 5705, 5672, 6762, 6795, 6794, 6761
5342, 5674, 5707, 5706, 5673, 6763, 6796, 6795, 6762
5343, 5675, 5708, 5707, 5674, 6764, 6797, 6796, 6763
5344, 5676, 5709, 5708, 5675, 6765, 6798, 6797, 6764
5345, 5678, 5711, 5710, 5677, 6767, 6800, 6799, 6766
5346, 5679, 5712, 5711, 5678, 6768, 6801, 6800, 6767
5347, 5680, 5713, 5712, 5679, 6769, 6802, 6801, 6768
5348, 5681, 5714, 5713, 5680, 6770, 6803, 6802, 6769
5349, 5682, 5715, 5714, 5681, 6771, 6804, 6803, 6770
5350, 5683, 5716, 5715, 5682, 6772, 6805, 6804, 6771
5351, 5684, 5717, 5716, 5683, 6773, 6806, 6805, 6772
5352, 5685, 5718, 5717, 5684, 6774, 6807, 6806, 6773
5353, 5686, 5719, 5718, 5685, 6775, 6808, 6807, 6774
5354, 5687, 5720, 5719, 5686, 6776, 6809, 6808, 6775
5355, 5688, 5721, 5720, 5687, 6777, 6810, 6809, 6776
5356, 5689, 5722, 5721, 5688, 6778, 6811, 6810, 6777
5357, 5690, 5723, 5722, 5689, 6779, 6812, 6811, 6778
5358, 5691, 5724, 5723, 5690, 6780, 6813, 6812, 6779
5359, 5692, 5725, 5724, 5691, 6781, 6814, 6813, 6780
5360, 5693, 5726, 5725, 5692, 6782, 6815, 6814, 6781
5361, 5694, 5727, 5726, 5693, 6783, 6816, 6815, 6782
5362, 5695, 5728, 5727, 5694, 6784, 6817, 6816, 6783
5363, 5696, 5729, 5728, 5695, 6785, 6818, 6817, 6784
5364, 5697, 5730, 5729, 5696, 6786, 6819, 6818, 6785
5365, 5698, 5731, 5730, 5697, 6787, 6820, 6819, 6786
5366, 5699, 5732, 5731, 5698, 6788, 6821, 6820, 6787
5367, 5700, 5733, 5732, 5699, 6789, 6822, 6821, 6788
5368, 5701, 5734, 5733, 5700, 6790, 6823, 6822, 6789
5369, 5702, 5735, 5734, 5701, 6791, 6824, 6823, 6790
5370, 5703, 5736, 5735, 5702, 6792, 6825, 6824, 6791
5371, 5704, 5737, 5736, 5703, 6793, 6826, 6825, 6792
5372, 5705, 5738, 5737, 5704, 6794, 6827, 6826, 6793
5373, 5706, 5739, 5738, 5705, 6795, 6828, 6827, 6794
5374, 5707, 5740, 5739, 5706, 6796, 6829, 6828, 6795
5375, 5708, 5741, 5740, 5707, 6797, 6830, 6829, 6796
5376, 5709, 5742, 5741, 5708, 6798, 6831, 6830, 6797
5377, 5711, 5744, 5743, 5710, 6800, 6833, 6832, 6799
5378, 5712, 5745, 5744, 5711, 6801, 6834, 6833, 6800
5379, 5713, 5746, 5745, 5712, 6802, 6835, 6834, 6801
5380, 5714, 5747, 5746, 5713, 6803, 6836, 6835, 6802
5381, 5715, 5748, 5747, 5714, 6804, 6837, 6836, 6803
5382, 5716, 5749, 5748, 5715, 6805, 6838, 6837, 6804
5383, 5717, 5750, 5749, 5716, 6806, 6839, 6838, 6805
5384, 5718, 5751, 5750, 5717, 6807, 6840, 6839, 6806
5385, 5719, 5752, 5751, 5718, 6808, 6841, 6840, 6807
5386, 5720, 5753, 5752, 5719, 6809, 6842, 6841, 6808
5387, 5721, 5754, 5753, 5720, 6810, 6843, 6842, 6809
5388, 5722, 5755, 5754, 5721, 6811, 6844, 6843, 6810
5389, 5723, 5756, 5755, 5722, 6812, 6845, 6844, 6811
5390, 5724, 5757, 5756, 5723, 6813, 6846, 6845, 6812
5391, 5725, 5758, 5757, 5724, 6814, 6847, 6846, 6813
5392, 5726, 5759, 5758, 5725, 6815, 6848, 6847, 6814
5393, 5727, 5760, 5759, 5726, 6816, 6849, 6848, 6815
5394, 5728, 5761, 5760, 5727, 6817, 6850, 6849, 6816
5395, 5729, 5762, 5761, 5728, 6818, 6851, 6850, 6817
5396, 5730, 5763, 5762, 5729, 6819, 6852, 6851, 6818
5397, 5731, 5764, 5763, 5730, 6820, 6853, 6852, 6819
5398, 5732, 5765, 5764, 5731, 6821, 6854, 6853, 6820
5399, 5733, 5766, 5765, 5732, 6822, 6855, 6854, 6821
5400, 5734, 5767, 5766, 5733, 6823, 6856, 6855, 6822
5401, 5735, 5768, 5767, 5734, 6824, 6857, 6856, 6823
5402, 5736, 5769, 5768, 5735, 6825, 6858, 6857, 6824
5403, 5737, 5770, 5769, 5736, 6826, 6859, 6858, 6825
5404, 5738, 5771, 5770, 5737, 6827, 6860, 6859, 6826
5405, 5739, 5772, 5771, 5738, 6828, 6861, 6860, 6827
5406, 5740, 5773, 5772, 5739, 6829, 6862, 6861, 6828
5407, 5741, 5774, 5773, 5740, 6830, 6863, 6862, 6829
5408, 5742, 5775, 5774, 5741, 6831, 6864, 6863, 6830
5409, 5744, 5777, 5776, 5743, 6833, 6866, 6865, 6832
5410, 5745, 5778, 5777, 5744, 6834, 6867, 6866, 6833
5411, 5746, 5779, 5778, 5745, 6835, 6868, 6867, 6834
5412, 5747, 5780, 5779, 5746, 6836, 6869, 6868, 6835
5413, 5748, 5781, 5780, 5747, 6837, 6870, 6869, 6836
5414, 5749, 5782, 5781, 5748, 6838, 6871, 6870, 6837
5415, 5750, 5783, 5782, 5749, 6839, 6872, 6871, 6838
5416, 5751, 5784, 5783, 5750, 6840, 6873, 6872, 6839
5417, 5752, 5785, 5784, 5751, 6841, 6874, 6873, 6840
5418, 5753, 5786, 5785, 5752, 6842, 6875, 6874, 6841
5419, 5754, 5787, 5786, 5753, 6843, 6876, 6875, 6842
5420, 5755, 5788, 5787, 5754, 6844, 6877, 6876, 6843
5421, 5756, 5789, 5788, 5755, 6845, 6878, 6877, 6844
5422, 5757, 5790, 5789, 5756, 6846, 6879, 6878, 6845
5423, 5758, 5791, 5790, 5757, 6847, 6880, 6879, 6846
5424, 5759, 5792, 5791, 5758, 6848, 6881, 6880, 6847
5425, 5760, 5793, 5792, 5759, 6849, 6882, 6881, 6848
5426, 5761, 5794, 5793, 5760, 6850, 6883, 6882, 6849
5427, 5762, 5795, 5794, 5761, 6851, 6884, 6883, 6850
5428, 5763, 5796, 5795, 5762, 6852, 6885, 6884, 6851
5429, 5764, 5797, 5796, 5763, 6853, 6886, 6885, 6852
5430, 5765, 5798, 5797, 5764, 6854, 6887, 6886, 6853
5431, 5766, 5799, 5798, 5765, 6855, 6888, 6887, 6854
5432, 5767, 5800, 5799, 5766, 6856, 6889, 6888, 6855
5433, 5768, 5801, 5800, 5767, 6857, 6890, 6889, 6856
5434, 5769, 5802, 5801, 5768, 6858, 6891, 6890, 6857
5435, 5770, 5803, 5802, 5769, 6859, 6892, 6891, 6858
5436, 5771, 5804, 5803, 5770, 6860, 6893, 6892, 6859
5437, 5772, 5805, 5804, 5771, 6861, 6894, 6893, 6860
5438, 5773, 5806, 5805, 5772, 6862, 6895, 6894, 6861
5439, 5774, 5807, 5806, 5773, 6863, 6896, 6895, 6862
5440, 5775, 5808, 5807, 5774, 6864, 6897, 6896, 6863
5441, 5777, 5810, 5809, 5776, 6866, 6899, 6898, 6865
5442, 5778, 5811, 5810, 5777, 6867, 6900, 6899, 6866
5443, 5779, 5812, 5811, 5778, 6868, 6901, 6900, 6867
5444, 5780, 5813, 5812, 5779, 6869, 6902, 6901, 6868
5445, 5781, 5814, 5813, 5780, 6870, 6903, 6902, 6869
5446, 5782, 5815, 5814, 5781, 6871, 6904, 6903, 6870
5447, 5783, 5816, 5815, 5782, 6872, 6905, 6904, 6871
5448, 5784, 5817, 5816, 5783, 6873, 6906, 6905, 6872
5449, 5785, 5818, 5817, 5784, 6874, 6907, 6906, 6873
5450, 5786, 5819, 5818, 5785, 6875, 6908, 6907, 6874
5451, 5787, 5820, 5819, 5786, 6876, 6909, 6908, 6875
5452, 5788, 5821, 5820, 5787, 6877, 6910, 6909, 6876
5453, 5789, 5822, 5821, 5788, 6878, 6911, 6910, 6877
5454, 5790, 5823, 5822, 5789, 6879, 6912, 6911, 6878
5455, 5791, 5824, 5823, 5790, 6880, 6913, 6912, 6879
5456, 5792, 5825, 5824, 5791, 6881, 6914, 6913, 6880
5457, 5793, 5826, 5825, 5792, 6882, 6915, 6914, 6881
5458, 5794, 5827, 5826, 5793, 6883, 6916, 6915, 6882
5459, 5795, 5828, 5827, 5794, 6884, 6917, 6916, 6883
5460, 5796, 5829, 5828, 5795, 6885, 6918, 6917, 6884
5461, 5797, 5830, 5829, 5796, 6886, 6919, 6918, 6885
5462, 5798, 5831, 5830, 5797, 6887, 6920, 6919, 6886
5463, 5799, 5832, 5831, 5798, 6888, 6921, 6920, 6887
5464, 5800, 5833, 5832, 5799, 6889, 6922, 6921, 6888
5465, 5801, 5834, 5833, 5800, 6890, 6923, 6922, 6889
5466, 5802, 5835, 5834, 5801, 6891, 6924, 6923, 6890
5467, 5803, 5836, 5835, 5802, 6892, 6925, 6924, 6891
5468, 5804, 5837, 5836, 5803, 6893, 6926, 6925, 6892
5469, 5805, 5838, 5837, 5804, 6894, 6927, 6926, 6893
5470, 5806, 5839, 5838, 5805, 6895, 6928, 6927, 6894
5471, 5807, 5840, 5839, 5806, 6896, 6929, 6928, 6895
5472, 5808, 5841, 5840, 5807, 6897, 6930, 6929, 6896
5473, 5810, 5843, 5842, 5809, 6899, 6932, 6931, 6898
5474, 5811, 5844, 5843, 5810, 6900, 6933, 6932, 6899
5475, 5812, 5845, 5844, 5811, 6901, 6934, 6933, 6900
5476, 5813, 5846, 5845, 5812, 6902, 6935, 6934, 6901
5477, 5814, 5847, 5846, 5813, 6903, 6936, 6935, 6902
5478, 5815, 5848, 5847, 5814, 6904, 6937, 6936, 6903
5479, 5816, 5849, 5848, 5815, 6905, 6938, 6937, 6904
5480, 5817, 5850, 5849, 5816, 6906, 6939, 6938, 6905
5481, 5818, 5851, 5850, 5817, 6907, 6940, 6939, 6906
5482, 5819, 5852, 5851, 5818, 6908, 6941, 6940, 6907
5483, 5820, 5853, 5852, 5819, 6909, 6942, 6941, 6908
5484, 5821, 5854, 5853, 5820, 6910, 6943, 6942, 6909
5485, 5822, 5855, 5854, 5821, 6911, 6944, 6943, 6910
5486, 5823, 5856, 5855, 5822, 6912, 6945, 6944, 6911
5487, 5824, 5857, 5856, 5823, 6913, 6946, 6945, 6912
5488, 5825, 5858, 5857, 5824, 6914, 6947, 6946, 6913
5489, 5826, 5859, 5858, 5825, 6915, 6948, 6947, 6914
5490, 5827, 5860, 5859, 5826, 6916, 6949, 6948, 6915
5491, 5828, 5861, 5860, 5827, 6917, 6950, 6949, 6916
5492, 5829, 5862, 5861, 5828, 6918, 6951, 6950, 6917
5493, 5830, 5863, 5862, 5829, 6919, 6952, 6951, 6918
5494, 5831, 5864, 5863, 5830, 6920, 6953, 6952, 6919
5495, 5832, 5865, 5864, 5831, 6921, 6954, 6953, 6920
5496, 5833, 5866, 5865, 5832, 6922, 6955, 6954, 6921
5497, 5834, 5867, 5866, 5833, 6923, 6956, 6955, 6922
5498, 5835, 5868, 5867, 5834, 6924, 6957, 6956, 6923
5499, 5836, 5869, 5868, 5835, 6925, 6958, 6957, 6924
5500, 5837, 5870, 5869, 5836, 6926, 6959, 6958, 6925
5501, 5838, 5871, 5870, 5837, 6927, 6960, 6959, 6926
5502, 5839, 5872, 5871, 5838, 6928, 6961, 6960, 6927
5503, 5840, 5873, 5872, 5839, 6929, 6962, 6961, 6928
5504, 5841, 5874, 5873, 5840, 6930, 6963, 6962, 6929
5505, 5843, 5876, 5875, 5842, 6932, 6965, 6964, 6931
5506, 5844, 5877, 5876, 5843, 6933, 6966, 6965, 6932
5507, 5845, 5878, 5877, 5844, 6934, 6967, 6966, 6933
5508, 5846, 5879, 5878, 5845, 6935, 6968, 6967, 6934
5509, 5847, 5880, 5879, 5846, 6936, 6969, 6968, 6935
5510, 5848, 5881, 5880, 5847, 6937, 6970, 6969, 6936
5511, 5849, 5882, 5881, 5848, 6938, 6971, 6970, 6937
5512, 5850, 5883, 5882, 5849, 6939, 6972, 6971, 6938
5513, 5851, 5884, 5883, 5850, 6940, 6973, 6972, 6939
5514, 5852, 5885, 5884, 5851, 6941, 6974, 6973, 6940
5515, 5853, 5886, 5885, 5852, 6942, 6975, 6974, 6941
5516, 5854, 5887, 5886, 5853, 6943, 6976, 6975, 6942
5517, 5855, 5888, 5887, 5854, 6944, 6977, 6976, 6943
5518, 5856, 5889, 5888, 5855, 6945, 6978, 6977, 6944
5519, 5857, 5890, 5889, 5856, 6946, 6979, 6978, 6945
5520, 5858, 5891, 5890, 5857, 6947, 6980, 6979, 6946
5521, 5859, 5892, 5891, 5858, 6948, 6981, 6980, 6947
5522, 5860, 5893, 5892, 5859, 6949, 6982, 6981, 6948
5523, 5861, 5894, 5893, 5860, 6950, 6983, 6982, 6949
5524, 5862, 5895, 5894, 5861, 6951, 6984, 6983, 6950
5525, 5863, 5896, 5895, 5862, 6952, 6985, 6984, 6951
5526, 5864, 5897, 5896, 5863, 6953, 6986, 6985, 6952
5527, 5865, 5898, 5897, 5864, 6954, 6987, 6986, 6953
5528, 5866, 5899, 5898, 5865, 6955, 6988, 6987, 6954
5529, 5867, 5900, 5899, 5866, 6956, 6989, 6988, 6955
5530, 5868, 5901, 5900, 5867, 6957, 6990, 6989, 6956
5531, 5869, 5902, 5901, 5868, 6958, 6991, 6990, 6957
5532, 5870, 5903, 5902, 5869, 6959, 6992, 6991, 6958
5533, 5871, 5904, 5903, 5870, 6960, 6993, 6992, 6959
5534, 5872, 5905, 5904, 5871, 6961, 6994, 6993, 6960
5535, 5873, 5906, 5905, 5872, 6962, 6995, 6994, 6961
5536, 5874, 5907, 5906, 5873, 6963, 6996, 6995, 6962
5537, 5876, 5909, 5908, 5875, 6965, 6998, 6997, 6964
5538, 5877, 5910, 5909, 5876, 6966, 6999, 6998, 6965
5539, 5878, 5911, 5910, 5877, 6967, 7000, 6999, 6966
5540, 5879, 5912, 5911, 5878, 6968, 7001, 7000, 6967
5541, 5880, 5913, 5912, 5879, 6969, 7002, 7001, 6968
5542, 5881, 5914, 5913, 5880, 6970, 7003, 7002, 6969
5543, 5882, 5915, 5914, 5881, 6971, 7004, 7003, 6970
5544, 5883, 5916, 5915, 5882, 6972, 7005, 7004, 6971
5545, 5884, 5917, 5916, 5883, 6973, 7006, 7005, 6972
5546, 5885, 5918, 5917, 5884, 6974, 7007, 7006, 6973
5547, 5886, 5919, 5918, 5885, 6975, 7008, 7007, 6974
5548, 5887, 5920, 5919, 5886, 6976, 7009, 7008, 6975
5549, 5888, 5921, 5920, 5887, 6977, 7010, 7009, 6976
5550, 5889, 5922, 5921, 5888, 6978, 7011, 7010, 6977
5551, 5890, 5923, 5922, 5889, 6979, 7012, 7011, 6978
5552, 5891, 5924, 5923, 5890, 6980, 7013, 7012, 6979
5553, 5892, 5925, 5924, 5891, 6981, 7014, 7013, 6980
5554, 5893, 5926, 5925, 5892, 6982, 7015, 7014, 6981
5555, 5894, 5927, 5926, 5893, 6983, 7016, 7015, 6982
5556, 5895, 5928, 5927, 5894, 6984, 7017, 7016, 6983
5557, 5896, 5929, 5928, 5895, 6985, 7018, 7017, 6984
5558, 5897, 5930, 5929, 5896, 6986, 7019, 7018, 6985
5559, 5898, 5931, 5930, 5897, 6987, 7020, 7019, 6986
5560, 5899, 5932, 5931, 5898, 6988, 7021, 7020, 6987
5561, 5900, 5933, 5932, 5899, 6989, 7022, 7021, 6988
5562, 5901, 5934, 5933, 5900, 6990, 7023, 7022, 6989
5563, 5902, 5935, 5934, 5901, 6991, 7024, 7023, 6990
5564, 5903, 5936, 5935, 5902, 6992, 7025, 7024, 6991
5565, 5904, 5937, 5936, 5903, 6993, 7026, 7025, 6992
5566, 5905, 5938, 5937, 5904, 6994, 7027, 7026, 6993
5567, 5906, 5939, 5938, 5905, 6995, 7028, 7027, 6994
5568, 5907, 5940, 5939, 5906, 6996, 7029, 7028, 6995
5569, 5909, 5942, 5941, 5908, 6998, 7031, 7030, 6997
5570, 5910, 5943, 5942, 5909, 6999, 7032, 7031, 6998
5571, 5911, 5944, 5943, 5910, 7000, 7033, 7032, 6999
5572, 5912, 5945, 5944, 5911, 7001, 7034, 7033, 7000
5573, 5913, 5946, 5945, 5912, 7002, 7035, 7034, 7001
5574, 5914, 5947, 5946, 5913, 7003, 7036, 7035, 7002
5575, 5915, 5948, 5947, 5914, 7004, 7037, 7036, 7003
5576, 5916, 5949, 5948, 5915, 7005, 7038, 7037, 7004
5577, 5917, 5950, 5949, 5916, 7006, 7039, 7038, 7005
5578, 5918, 5951, 5950, 5917, 7007, 7040, 7039, 7006
5579, 5919, 5952, 5951, 5918, 7008, 7041, 7040, 7007
5580, 5920, 5953, 5952, 5919, 7009, 7042, 7041, 7008
5581, 5921, 5954, 5953, 5920, 7010, 7043, 7042, 7009
5582, 5922, 5955, 5954, 5921, 7011, 7044, 7043, 7010
5583, 5923, 5956, 5955, 5922, 7012, 7045, 7044, 7011
5584, 5924, 5957, 5956, 5923, 7013, 7046, 7045, 7012
5585, 5925, 5958, 5957, 5924, 7014, 7047, 7046, 7013
5586, 5926, 5959, 5958, 5925, 7015, 7048, 7047, 7014
5587, 5927, 5960, 5959, 5926, 7016, 7049, 7048, 7015
5588, 5928, 5961, 5960, 5927, 7017, 7050, 7049, 7016
5589, 5929, 5962, 5961, 5928, 7018, 7051, 7050, 7017
5590, 5930, 5963, 5962, 5929, 7019, 7052, 7051, 7018
5591, 5931, 5964, 5963, 5930, 7020, 7053, 7052, 7019
5592, 5932, 5965, 5964, 5931, 7021, 7054, 7053, 7020
5593, 5933, 5966, 5965, 5932, 7022, 7055, 7054, 7021
5594, 5934, 5967, 5966, 5933, 7023, 7056, 7055, 7022
5595, 5935, 5968, 5967, 5934, 7024, 7057, 7056, 7023
5596, 5936, 5969, 5968, 5935, 7025, 7058, 7057, 7024
5597, 5937, 5970, 5969, 5936, 7026, 7059, 7058, 7025
5598, 5938, 5971, 5970, 5937, 7027, 7060, 7059, 7026
5599, 5939, 5972, 5971, 5938, 7028, 7061, 7060, 7027
5600, 5940, 5973, 5972, 5939, 7029, 7062, 7061, 7028
5601, 5942, 5975, 5974, 5941, 7031, 7064, 7063, 7030
5602, 5943, 5976, 5975, 5942, 7032, 7065, 7064, 7031
5603, 5944, 5977, 5976, 5943, 7033, 7066, 7065, 7032
5604, 5945, 5978, 5977, 5944, 7034, 7067, 7066, 7033
5605, 5946, 5979, 5978, 5945, 7035, 7068, 7067, 7034
5606, 5947, 5980, 5979, 5946, 7036, 7069, 7068, 7035
5607, 5948, 5981, 5980, 5947, 7037, 7070, 7069, 7036
5608, 5949, 5982, 5981, 5948, 7038, 7071, 7070, 7037
5609, 5950, 5983, 5982, 5949, 7039, 7072, 7071, 7038
5610, 5951, 5984, 5983, 5950, 7040, 7073, 7072, 7039
5611, 5952, 5985, 5984, 5951, 7041, 7074, 7073, 7040
5612, 5953, 5986, 5985, 5952, 7042, 7075, 7074, 7041
5613, 5954, 5987, 5986, 5953, 7043, 7076, 7075, 7042
5614, 5955, 5988, 5987, 5954, 7044, 7077, 7076, 7043
5615, 5956, 5989, 5988, 5955, 7045, 7078, 7077, 7044
5616, 5957, 5990, 5989, 5956, 7046, 7079, 7078, 7045
5617, 5958, 5991, 5990, 5957, 7047, 7080, 7079, 7046
5618, 5959, 5992, 5991, 5958, 7048, 7081, 7080, 7047
5619, 5960, 5993, 5992, 5959, 7049, 7082, 7081, 7048
5620, 5961, 5994, 5993, 5960, 7050, 7083, 7082, 7049
5621, 5962, 5995, 5994, 5961, 7051, 7084, 7083, 7050
5622, 5963, 5996, 5995, 5962, 7052, 7085, 7084, 7051
5623, 5964, 5997, 5996, 5963, 7053, 7086, 7085, 7052
5624, 5965, 5998, 5997, 5964, 7054, 7087, 7086, 7053
5625, 5966, 5999, 5998, 5965, 7055, 7088, 7087, 7054
5626, 5967, 6000, 5999, 5966, 7056, 7089, 7088, 7055
5627, 5968, 6001, 6000, 5967, 7057, 7090, 7089, 7056
5628, 5969, 6002, 6001, 5968, 7058, 7091, 7090, 7057
5629, 5970, 6003, 6002, 5969, 7059, 7092, 7091, 7058
5630, 5971, 6004, 6003, 5970, 7060, 7093, 7092, 7059
5631, 5972, 6005, 6004, 5971, 7061, 7094, 7093, 7060
5632, 5973, 6006, 6005, 5972, 7062, 7095, 7094, 7061
5633, 5975, 6008, 6007, 5974, 7064, 7097, 7096, 7063
5634, 5976, 6009, 6008, 5975, 7065, 7098, 7097, 7064
5635, 5977, 6010, 6009, 5976, 7066, 7099, 7098, 7065
5636, 5978, 6011, 6010, 5977, 7067, 7100, 7099, 7066
5637, 5979, 6012, 6011, 5978, 7068, 7101, 7100, 7067
5638, 5980, 6013, 6012, 5979, 7069, 7102, 7101, 7068
5639, 5981, 6014, 6013, 5980, 7070, 7103, 7102, 7069
5640, 5982, 6015, 6014, 5981, 7071, 7104, 7103, 7070
5641, 5983, 6016, 6015, 5982, 7072, 7105, 7104, 7071
5642, 5984, 6017, 6016, 5983, 7073, 7106, 7105, 7072
5643, 5985, 6018, 6017, 5984, 7074, 7107, 7106, 7073
5644, 5986, 6019, 6018, 5985, 7075, 7108, 7107, 7074
5645, 5987, 6020, 6019, 5986, 7076, 7109, 7108, 7075
5646, 5988, 6021, 6020, 5987, 7077, 7110, 7109, 7076
5647, 5989, 6022, 6021, 5988, 7078, 7111, 7110, 7077
5648, 5990, 6023, 6022, 5989, 7079, 7112, 7111, 7078
5649, 5991, 6024, 6023, 5990, 7080, 7113, 7112, 7079
5650, 5992, 6025, 6024, 5991, 7081, 7114, 7113, 7080
5651, 5993, 6026, 6025, 5992, 7082, 7115, 7114, 7081
5652, 5994, 6027, 6026, 5993, 7083, 7116, 7115, 7082
5653, 5995, 6028, 6027, 5994, 7084, 7117, 7116, 7083
5654, 5996, 6029, 6028, 5995, 7085, 7118, 7117, 7084
5655, 5997, 6030, 6029, 5996, 7086, 7119, 7118, 7085
5656, 5998, 6031, 6030, 5997, 7087, 7120, 7119, 7086
5657, 5999, 6032, 6031, 5998, 7088, 7121, 7120, 7087
5658, 6000, 6033, 6032, 5999, 7089, 7122, 7121, 7088
5659, 6001, 6034, 6033, 6000, 7090, 7123, 7122, 7089
5660, 6002, 6035, 6034, 6001, 7091, 7124, 7123, 7090
5661, 6003, 6036, 6035, 6002, 7092, 7125, 7124, 7091
5662, 6004, 6037, 6036, 6003, 7093, 7126, 7125, 7092
5663, 6005, 6038, 6037, 6004, 7094, 7127, 7126, 7093
5664, 6006, 6039, 6038, 6005, 7095, 7128, 7127, 7094
5665, 6008, 6041, 6040, 6007, 7097, 7130, 7129, 7096
5666, 6009, 6042, 6041, 6008, 7098, 7131, 7130, 7097
5667, 6010, 6043, 6042, 6009, 7099, 7132, 7131, 7098
5668, 6011, 6044, 6043, 6010, 7100, 7133, 7132, 7099
5669, 6012, 6045, 6044, 6011, 7101, 7134, 7133, 7100
5670, 6013, 6046, 6045, 6012, 7102, 7135, 7134, 7101
5671, 6014, 6047, 6046, 6013, 7103, 7136, 7135, 7102
5672, 6015, 6048, 6047, 6014, 7104, 7137, 7136, 7103
5673, 6016, 6049, 6048, 6015, 7105, 7138, 7137, 7104
5674, 6017, 6050, 6049, 6016, 7106, 7139, 7138, 7105
5675, 6018, 6051, 6050, 6017, 7107, 7140, 7139, 7106
5676, 6019, 6052, 6051, 6018, 7108, 7141, 7140, 7107
5677, 6020, 6053, 6052, 6019, 7109, 7142, 7141, 7108
5678, 6021, 6054, 6053, 6020, 7110, 7143, 7142, 7109
5679, 6022, 6055, 6054, 6021, 7111, 7144, 7143, 7110
5680, 6023, 6056, 6055, 6022, 7112, 7145, 7144, 7111
5681, 6024, 6057, 6056, 6023, 7113, 7146, 7145, 7112
5682, 6025, 6058, 6057, 6024, 7114, 7147, 7146, 7113
5683, 6026, 6059, 6058, 6025, 7115, 7148, 7147, 7114
5684, 6027, 6060, 6059, 6026, 7116, 7149, 7148, 7115
5685, 6028, 6061, 6060, 6027, 7117, 7150, 7149, 7116
5686, 6029, 6062, 6061, 6028, 7118, 7151, 7150, 7117
5687, 6030, 6063, 6062, 6029, 7119, 7152, 7151, 7118
5688, 6031, 6064, 6063, 6030, 7120, 7153, 7152, 7119
5689, 6032, 6065, 6064, 6031, 7121, 7154, 7153, 7120
5690, 6033, 6066, 6065, 6032, 7122, 7155, 7154, 7121
5691, 6034, 6067, 6066, 6033, 7123, 7156, 7155, 7122
5692, 6035, 6068, 6067, 6034, 7124, 7157, 7156, 7123
5693, 6036, 6069, 6068, 6035, 7125, 7158, 7157, 7124
5694, 6037, 6070, 6069, 6036, 7126, 7159, 7158, 7125
5695, 6038, 6071, 6070, 6037, 7127, 7160, 7159, 7126
5696, 6039, 6072, 6071, 6038, 7128, 7161, 7160, 7127
5697, 6041, 6074, 6073, 6040, 7130, 7163, 7162, 7129
5698, 6042, 6075, 6074, 6041, 7131, 7164, 7163, 7130
5699, 6043, 6076, 6075, 6042, 7132, 7165, 7164, 7131
5700, 6044, 6077, 6076, 6043, 7133, 7166, 7165, 7132
5701, 6045, 6078, 6077, 6044, 7134, 7167, 7166, 7133
5702, 6046, 6079, 6078, 6045, 7135, 7168, 7167, 7134
5703, 6047, 6080, 6079, 6046, 7136, 7169, 7168, 7135
5704, 6048, 6081, 6080, 6047, 7137, 7170, 7169, 7136
5705, 6049, 6082, 6081, 6048, 7138, 7171, 7170, 7137
5706, 6050, 6083, 6082, 6049, 7139, 7172, 7171, 7138
5707, 6051, 6084, 6083, 6050, 7140, 7173, 7172, 7139
5708, 6052, 6085, 6084, 6051, 7141, 7174, 7173, 7140
5709, 6053, 6086, 6085, 6052, 7142, 7175, 7174, 7141
5710, 6054, 6087, 6086, 6053, 7143, 7176, 7175, 7142
5711, 6055, 6088, 6087, 6054, 7144, 7177, 7176, 7143
5712, 6056, 6089, 6088, 6055, 7145, 7178, 7177, 7144
5713, 6057, 6090, 6089, 6056, 7146, 7179, 7178, 7145
5714, 6058, 6091, 6090, 6057, 7147, 7180, 7179, 7146
5715, 6059, 6092, 6091, 6058, 7148, 7181, 7180, 7147
5716, 6060, 6093, 6092, 6059, 7149, 7182, 7181, 7148
5717, 6061, 6094, 6093, 6060, 7150, 7183, 7182, 7149
5718, 6062, 6095, 6094, 6061, 7151, 7184, 7183, 7150
5719, 6063, 6096, 6095, 6062, 7152, 7185, 7184, 7151
5720, 6064, 6097, 6096, 6063, 7153, 7186, 7185, 7152
5721, 6065, 6098, 6097, 6064, 7154, 7187, 7186, 7153
5722, 6066, 6099, 6098, 6065, 7155, 7188, 7187, 7154
5723, 6067, 6100, 6099, 6066, 7156, 7189, 7188, 7155
5724, 6068, 6101, 6100, 6067, 7157, 7190, 7189, 7156
5725, 6069, 6102, 6101, 6068, 7158, 7191, 7190, 7157
5726, 6070, 6103, 6102, 6069, 7159, 7192, 7191, 7158
5727, 6071, 6104, 6103, 6070, 7160, 7193, 7192, 7159
5728, 6072, 6105, 6104, 6071, 7161, 7194, 7193, 7160
5729, 6074, 6107, 6106, 6073, 7163, 7196, 7195, 7162
5730, 6075, 6108, 6107, 6074, 7164, 7197, 7196, 7163
5731, 6076, 6109, 6108, 6075, 7165, 7198, 7197, 7164
5732, 6077, 6110, 6109, 6076, 7166, 7199, 7198, 7165
5733, 6078, 6111, 6110, 6077, 7167, 7200, 7199, 7166
5734, 6079, 6112, 6111, 6078, 7168, 7201, 7200, 7167
5735, 6080, 6113, 6112, 6079, 7169, 7202, 7201, 7168
5736, 6081, 6114, 6113, 6080, 7170, 7203, 7202, 7169
5737, 6082, 6115, 6114, 6081, 7171, 7204, 7203, 7170
5738, 6083, 6116, 6115, 6082, 7172, 7205, 7204, 7171
5739, 6084, 6117, 6116, 6083, 7173, 7206, 7205, 7172
5740, 6085, 6118, 6117, 6084, 7174, 7207, 7206, 7173
5741, 6086, 6119, 6118, 6085, 7175, 7208, 7207, 7174
5742, 6087, 6120, 6119, 6086, 7176, 7209, 7208, 7175
5743, 6088, 6121, 6120, 6087, 7177, 7210, 7209, 7176
5744, 6089, 6122, 6121, 6088, 7178, 7211, 7210, 7177
5745, 6090, 6123, 6122, 6089, 7179, 7212, 7211, 7178
5746, 6091, 6124, 6123, 6090, 7180, 7213, 7212, 7179
5747, 6092, 6125, 6124, 6091, 7181, 7214, 7213, 7180
5748, 6093, 6126, 6125, 6092, 7182, 7215, 7214, 7181
5749, 6094, 6127, 6126, 6093, 7183, 7216, 7215, 7182
5750, 6095, 6128, 6127, 6094, 7184, 7217, 7216, 7183
5751, 6096, 6129, 6128, 6095, 7185, 7218, 7217, 7184
5752, 6097, 6130, 6129, 6096, 7186, 7219, 7218, 7185
5753, 6098, 6131, 6130, 6097, 7187, 7220, 7219, 7186
5754, 6099, 6132, 6131, 6098, 7188, 7221, 7220, 7187
5755, 6100, 6133, 6132, 6099, 7189, 7222, 7221, 7188
5756, 6101, 6134, 6133, 6100, 7190, 7223, 7222, 7189
5757, 6102, 6135, 6134, 6101, 7191, 7224, 7223, 7190
5758, 6103, 6136, 6135, 6102, 7192, 7225, 7224, 7191
5759, 6104, 6137, 6136, 6103, 7193, 7226, 7225, 7192
5760, 6105, 6138, 6137, 6104, 7194, 7227, 7226, 7193
5761, 6107, 6140, 6139, 6106, 7196, 7229, 7228, 7195
5762, 6108, 6141, 6140, 6107, 7197, 7230, 7229, 7196
5763, 6109, 6142, 6141, 6108, 7198, 7231, 7230, 7197
5764, 6110, 6143, 6142, 6109, 7199, 7232, 7231, 7198
5765, 6111, 6144, 6143, 6110, 7200, 7233, 7232, 7199
5766, 6112, 6145, 6144, 6111, 7201, 7234, 7233, 7200
5767, 6113, 6146, 6145, 6112, 7202, 7235, 7234, 7201
5768, 6114, 6147, 6146, 6113, 7203, 7236, 7235, 7202
5769, 6115, 6148, 6147, 6114, 7204, 7237, 7236, 7203
5770, 6116, 6149, 6148, 6115, 7205, 7238, 7237, 7204
5771, 6117, 6150, 6149, 6116, 7206, 7239, 7238, 7205
5772, 6118, 6151, 6150, 6117, 7207, 7240, 7239, 7206
5773, 6119, 6152, 6151, 6118, 7208, 7241, 7240, 7207
5774, 6120, 6153, 6152, 6119, 7209, 7242, 7241, 7208
5775, 6121, 6154, 6153, 6120, 7210, 7243, 7242, 7209
5776, 6122, 6155, 6154, 6121, 7211, 7244, 7243, 7210
5777, 6123, 6156, 6155, 6122, 7212, 7245, 7244, 7211
5778, 6124, 6157, 6156, 6123, 7213, 7246, 7245, 7212
5779, 6125, 6158, 6157, 6124, 7214, 7247, 7246, 7213
5780, 6126, 6159, 6158, 6125, 7215, 7248, 7247, 7214
5781, 6127, 6160, 6159, 6126, 7216, 7249, 7248, 7215
5782, 6128, 6161, 6160, 6127, 7217, 7250, 7249, 7216
5783, 6129, 6162, 6161, 6128, 7218, 7251, 7250, 7217
5784, 6130, 6163, 6162, 6129, 7219, 7252, 7251, 7218
5785, 6131, 6164, 6163, 6130, 7220, 7253, 7252, 7219
5786, 6132, 6165, 6164, 6131, 7221, 7254, 7253, 7220
5787, 6133, 6166, 6165, 6132, 7222, 7255, 7254, 7221
5788, 6134, 6167, 6166, 6133, 7223, 7256, 7255, 7222
5789, 6135, 6168, 6167, 6134, 7224, 7257, 7256, 7223
5790, 6136, 6169, 6168, 6135, 7225, 7258, 7257, 7224
5791, 6137, 6170, 6169, 6136, 7226, 7259, 7258, 7225
5792, 6138, 6171, 6170, 6137, 7227, 7260, 7259, 7226
5793, 6140, 6173, 6172, 6139, 7229, 7262, 7261, 7228
5794, 6141, 6174, 6173, 6140, 7230, 7263, 7262, 7229
5795, 6142, 6175, 6174, 6141, 7231, 7264, 7263, 7230
5796, 6143, 6176, 6175, 6142, 7232, 7265, 7264, 7231
5797, 6144, 6177, 6176, 6143, 7233, 7266, 7265, 7232
5798, 6145, 6178, 6177, 6144, 7234, 7267, 7266, 7233
5799, 6146, 6179, 6178, 6145, 7235, 7268, 7267, 7234
5800, 6147, 6180, 6179, 6146, 7236, 7269, 7268, 7235
5801, 6148, 6181, 6180, 6147, 7237, 7270, 7269, 7236
5802, 6149, 6182, 6181, 6148, 7238, 7271, 7270, 7237
5803, 6150, 6183, 6182, 6149, 7239, 7272, 7271, 7238
5804, 6151, 6184, 6183, 6150, 7240, 7273, 7272, 7239
5805, 6152, 6185, 6184, 6151, 7241, 7274, 7273, 7240
5806, 6153, 6186, 6185, 6152, 7242, 7275, 7274, 7241
5807, 6154, 6187, 6186, 6153, 7243, 7276, 7275, 7242
5808, 6155, 6188, 6187, 6154, 7244, 7277, 7276, 7243
5809, 6156, 6189, 6188, 6155, 7245, 7278, 7277, 7244
5810, 6157, 6190, 6189, 6156, 7246, 7279, 7278, 7245
5811, 6158, 6191, 6190, 6157, 7247, 7280, 7279, 7246
5812, 6159, 6192, 6191, 6158, 7248, 7281, 7280, 7247
5813, 6160, 6193, 6192, 6159, 7249, 7282, 7281, 7248
5814, 6161, 6194, 6193, 6160, 7250, 7283, 7282, 7249
5815, 6162, 6195, 6194, 6161, 7251, 7284, 7283, 7250
5816, 6163, 6196, 6195, 6162, 7252, 7285, 7284, 7251
5817, 6164, 6197, 6196, 6163, 7253, 7286, 7285, 7252
5818, 6165, 6198, 6197, 6164, 7254, 7287, 7286, 7253
5819, 6166, 6199, 6198, 6165, 7255, 7288, 7287, 7254
5820, 6167, 6200, 6199, 6166, 7256, 7289, 7288, 7255
5821, 6168, 6201, 6200, 6167, 7257, 7290, 7289, 7256
5822, 6169, 6202, 6201, 6168, 7258, 7291, 7290, 7257
5823, 6170, 6203, 6202, 6169, 7259, 7292, 7291, 7258
5824, 6171, 6204, 6203, 6170, 7260, 7293, 7292, 7259
5825, 6173, 6206, 6205, 6172, 7262, 7295, 7294, 7261
5826, 6174, 6207, 6206, 6173, 7263, 7296, 7295, 7262
5827, 6175, 6208, 6207, 6174, 7264, 7297, 7296, 7263
5828, 6176, 6209, 6208, 6175, 7265, 7298, 7297, 7264
5829, 6177, 6210, 6209, 6176, 7266, 7299, 7298, 7265
5830, 6178, 6211, 6210, 6177, 7267, 7300, 7299, 7266
5831, 6179, 6212, 6211, 6178, 7268, 7301, 7300, 7267
5832, 6180, 6213, 6212, 6179, 7269, 7302, 7301, 7268
5833, 6181, 6214, 6213, 6180, 7270, 7303, 7302, 7269
5834, 6182, 6215, 6214, 6181, 7271, 7304, 7303, 7270
5835, 6183, 6216, 6215, 6182, 7272, 7305, 7304, 7271
5836, 6184, 6217, 6216, 6183, 7273, 7306, 7305, 7272
5837, 6185, 6218, 6217, 6184, 7274, 7307, 7306, 7273
5838, 6186, 6219, 6218, 6185, 7275, 7308, 7307, 7274
5839, 6187, 6220, 6219, 6186, 7276, 7309, 7308, 7275
5840, 6188, 6221, 6220, 6187, 7277, 7310, 7309, 7276
5841, 6189, 6222, 6221, 6188, 7278, 7311, 7310, 7277
5842, 6190, 6223, 6222, 6189, 7279, 7312, 7311, 7278
5843, 6191, 6224, 6223, 6190, 7280, 7313, 7312, 7279
5844, 6192, 6225, 6224, 6191, 7281, 7314, 7313, 7280
5845, 6193, 6226, 6225, 6192, 7282, 7315, 7314, 7281
5846, 6194, 6227, 6226, 6193, 7283, 7316, 7315, 7282
5847, 6195, 6228, 6227, 6194, 7284, 7317, 7316, 7283
5848, 6196, 6229, 6228, 6195, 7285, 7318, 7317, 7284
5849, 6197, 6230, 6229, 6196, 7286, 7319, 7318, 7285
5850, 6198, 6231, 6230, 6197, 7287, 7320, 7319, 7286
5851, 6199, 6232, 6231, 6198, 7288, 7321, 7320, 7287
5852, 6200, 6233, 6232, 6199, 7289, 7322, 7321, 7288
5853, 6201, 6234, 6233, 6200, 7290, 7323, 7322, 7289
5854, 6202, 6235, 6234, 6201, 7291, 7324, 7323, 7290
5855, 6203, 6236, 6235, 6202, 7292, 7325, 7324, 7291
5856, 6204, 6237, 6236, 6203, 7293, 7326, 7325, 7292
5857, 6206, 6239, 6238, 6205, 7295, 7328, 7327, 7294
5858, 6207, 6240, 6239, 6206, 7296, 7329, 7328, 7295
5859, 6208, 6241, 6240, 6207, 7297, 7330, 7329, 7296
5860, 6209, 6242, 6241, 6208, 7298, 7331, 7330, 7297
5861, 6210, 6243, 6242, 6209, 7299, 7332, 7331, 7298
5862, 6211, 6244, 6243, 6210, 7300, 7333, 7332, 7299
5863, 6212, 6245, 6244, 6211, 7301, 7334, 7333, 7300
5864, 6213, 6246, 6245, 6212, 7302, 7335, 7334, 7301
5865, 6214, 6247, 6246, 6213, 7303, 7336, 7335, 7302
5866, 6215, 6248, 6247, 6214, 7304, 7337, 7336, 7303
5867, 6216, 6249, 6248, 6215, 7305, 7338, 7337, 7304
5868, 6217, 6250, 6249, 6216, 7306, 7339, 7338, 7305
5869, 6218, 6251, 6250, 6217, 7307, 7340, 7339, 7306
5870, 6219, 6252, 6251, 6218, 7308, 7341, 7340, 7307
5871, 6220, 6253, 6252, 6219, 7309, 7342, 7341, 7308
5872, 6221, 6254, 6253, 6220, 7310, 7343, 7342, 7309
5873, 6222, 6255, 6254, 6221, 7311, 7344, 7343, 7310
5874, 6223, 6256, 6255, 6222, 7312, 7345, 7344, 7311
5875, 6224, 6257, 6256, 6223, 7313, 7346, 7345, 7312
5876, 6225, 6258, 6257, 6224, 7314, 7347, 7346, 7313
5877, 6226, 6259, 6258, 6225, 7315, 7348, 7347, 7314
5878, 6227, 6260, 6259, 6226, 7316, 7349, 7348, 7315
5879, 6228, 6261, 6260, 6227, 7317, 7350, 7349, 7316
5880, 6229, 6262, 6261, 6228, 7318, 7351, 7350, 7317
5881, 6230, 6263, 6262, 6229, 7319, 7352, 7351, 7318
5882, 6231, 6264, 6263, 6230, 7320, 7353, 7352, 7319
5883, 6232, 6265, 6264, 6231, 7321, 7354, 7353, 7320
5884, 6233, 6266, 6265, 6232, 7322, 7355, 7354, 7321
5885, 6234, 6267, 6266, 6233, 7323, 7356, 7355, 7322
5886, 6235, 6268, 6267, 6234, 7324, 7357, 7356, 7323
5887, 6236, 6269, 6268, 6235, 7325, 7358, 7357, 7324
5888, 6237, 6270, 6269, 6236, 7326, 7359, 7358, 7325
5889, 6239, 6272, 6271, 6238, 7328, 7361, 7360, 7327
5890, 6240, 6273, 6272, 6239, 7329, 7362, 7361, 7328
5891, 6241, 6274, 6273, 6240, 7330, 7363, 7362, 7329
5892, 6242, 6275, 6274, 6241, 7331, 7364, 7363, 7330
5893, 6243, 6276, 6275, 6242, 7332, 7365, 7364, 7331
5894, 6244, 6277, 6276, 6243, 7333, 7366, 7365, 7332
5895, 6245, 6278, 6277, 6244, 7334, 7367, 7366, 7333
5896, 6246, 6279, 6278, 6245, 7335, 7368, 7367, 7334
5897, 6247, 6280, 6279, 6246, 7336, 7369, 7368, 7335
5898, 6248, 6281, 6280, 6247, 7337, 7370, 7369, 7336
5899, 6249, 6282, 6281, 6248, 7338, 7371, 7370, 7337
5900, 6250, 6283, 6282, 6249, 7339, 7372, 7371, 7338
5901, 6251, 6284, 6283, 6250, 7340, 7373, 7372, 7339
5902, 6252, 6285, 6284, 6251, 7341, 7374, 7373, 7340
5903, 6253, 6286, 6285, 6252, 7342, 7375, 7374, 7341
5904, 6254, 6287, 6286, 6253, 7343, 7376, 7375, 7342
5905, 6255, 6288, 6287, 6254, 7344, 7377, 7376, 7343
5906, 6256, 6289, 6288, 6255, 7345, 7378, 7377, 7344
5907, 6257, 6290, 6289, 6256, 7346, 7379, 7378, 7345
5908, 6258, 6291, 6290, 6257, 7347, 7380, 7379, 7346
5909, 6259, 6292, 6291, 6258, 7348, 7381, 7380, 7347
5910, 6260, 6293, 6292, 6259, 7349, 7382, 7381, 7348
5911, 6261, 6294, 6293, 6260, 7350, 7383, 7382, 7349
5912, 6262, 6295, 6294, 6261, 7351, 7384, 7383, 7350
5913, 6263, 6296, 6295, 6262, 7352, 7385, 7384, 7351
5914, 6264, 6297, 6296, 6263, 7353, 7386, 7385, 7352
5915, 6265, 6298, 6297, 6264, 7354, 7387, 7386, 7353
5916, 6266, 6299, 6298, 6265, 7355, 7388, 7387, 7354
5917, 6267, 6300, 6299, 6266, 7356, 7389, 7388, 7355
5918, 6268, 6301, 6300, 6267, 7357, 7390, 7389, 7356
5919, 6269, 6302, 6301, 6268, 7358, 7391, 7390, 7357
5920, 6270, 6303, 6302, 6269, 7359, 7392, 7391, 7358
5921, 6272, 6305, 6304, 6271, 7361, 7394, 7393, 7360
5922, 6273, 6306, 6305, 6272, 7362, 7395, 7394, 7361
5923, 6274, 6307, 6306, 6273, 7363, 7396, 7395, 7362
5924, 6275, 6308, 6307, 6274, 7364, 7397, 7396, 7363
5925, 6276, 6309, 6308, 6275, 7365, 7398, 7397, 7364
5926, 6277, 6310, 6309, 6276, 7366, 7399, 7398, 7365
5927, 6278, 6311, 6310, 6277, 7367, 7400, 7399, 7366
5928, 6279, 6312, 6311, 6278, 7368, 7401, 7400, 7367
5929, 6280, 6313, 6312, 6279, 7369, 7402, 7401, 7368
5930, 6281, 6314, 6313, 6280, 7370, 7403, 7402, 7369
5931, 6282, 6315, 6314, 6281, 7371, 7404, 7403, 7370
5932, 6283, 6316, 6315, 6282, 7372, 7405, 7404, 7371
5933, 6284, 6317, 6316, 6283, 7373, 7406, 7405, 7372
5934, 6285, 6318, 6317, 6284, 7374, 7407, 7406, 7373
5935, 6286, 6319, 6318, 6285, 7375, 7408, 7407, 7374
5936, 6287, 6320, 6319, 6286, 7376, 7409, 7408, 7375
5937, 6288, 6321, 6320, 6287, 7377, 7410, 7409, 7376
5938, 6289, 6322, 6321, 6288, 7378, 7411, 7410, 7377
5939, 6290, 6323, 6322, 6289, 7379, 7412, 7411, 7378
5940, 6291, 6324, 6323, 6290, 7380, 7413, 7412, 7379
5941, 6292, 6325, 6324, 6291, 7381, 7414, 7413, 7380
5942, 6293, 6326, 6325, 6292, 7382, 7415, 7414, 7381
5943, 6294, 6327, 6326, 6293, 7383, 7416, 7415, 7382
5944, 6295, 6328, 6327, 6294, 7384, 7417, 7416, 7383
5945, 6296, 6329, 6328, 6295, 7385, 7418, 7417, 7384
5946, 6297, 6330, 6329, 6296, 7386, 7419, 7418, 7385
5947, 6298, 6331, 6330, 6297, 7387, 7420, 7419, 7386
5948, 6299, 6332, 6331, 6298, 7388, 7421, 7420, 7387
5949, 6300, 6333, 6332, 6299, 7389, 7422, 7421, 7388
5950, 6301, 6334, 6333, 6300, 7390, 7423, 7422, 7389
5951, 6302, 6335, 6334, 6301, 7391, 7424, 7423, 7390
5952, 6303, 6336, 6335, 6302, 7392, 7425, 7424, 7391
5953, 6305, 6338, 6337, 6304, 7394, 7427, 7426, 7393
5954, 6306, 6339, 6338, 6305, 7395, 7428, 7427, 7394
5955, 6307, 6340, 6339, 6306, 7396, 7429, 7428, 7395
5956, 6308, 6341, 6340, 6307, 7397, 7430, 7429, 7396
5957, 6309, 6342, 6341, 6308, 7398, 7431, 7430, 7397
5958, 6310, 6343, 6342, 6309, 7399, 7432, 7431, 7398
5959, 6311, 6344, 6343, 6310, 7400, 7433, 7432, 7399
5960, 6312, 6345, 6344, 6311, 7401, 7434, 7433, 7400
5961, 6313, 6346, 6345, 6312, 7402, 7435, 7434, 7401
5962, 6314, 6347, 6346, 6313, 7403, 7436, 7435, 7402
5963, 6315, 6348, 6347, 6314, 7404, 7437, 7436, 7403
5964, 6316, 6349, 6348, 6315, 7405, 7438, 7437, 7404
5965, 6317, 6350, 6349, 6316, 7406, 7439, 7438, 7405
5966, 6318, 6351, 6350, 6317, 7407, 7440, 7439, 7406
5967, 6319, 6352, 6351, 6318, 7408, 7441, 7440, 7407
5968, 6320, 6353, 6352, 6319, 7409, 7442, 7441, 7408
5969, 6321, 6354, 6353, 6320, 7410, 7443, 7442, 7409
5970, 6322, 6355, 6354, 6321, 7411, 7444, 7443, 7410
5971, 6323, 6356, 6355, 6322, 7412, 7445, 7444, 7411
5972, 6324, 6357, 6356, 6323, 7413, 7446, 7445, 7412
5973, 6325, 6358, 6357, 6324, 7414, 7447, 7446, 7413
5974, 6326, 6359, 6358, 6325, 7415, 7448, 7447, 7414
5975, 6327, 6360, 6359, 6326, 7416, 7449, 7448, 7415
5976, 6328, 6361, 6360, 6327, 7417, 7450, 7449, 7416
5977, 6329, 6362, 6361, 6328, 7418, 7451, 7450, 7417
5978, 6330, 6363, 6362, 6329, 7419, 7452, 7451, 7418
5979, 6331, 6364, 6363, 6330, 7420, 7453, 7452, 7419
5980, 6332, 6365, 6364, 6331, 7421, 7454, 7453, 7420
5981, 6333, 6366, 6365, 6332, 7422, 7455, 7454, 7421
5982, 6334, 6367, 6366, 6333, 7423, 7456, 7455, 7422
5983, 6335, 6368, 6367, 6334, 7424, 7457, 7456, 7423
5984, 6336, 6369, 6368, 6335, 7425, 7458, 7457, 7424
5985, 6338, 6371, 6370, 6337, 7427, 7460, 7459, 7426
5986, 6339, 6372, 6371, 6338, 7428, 7461, 7460, 7427
5987, 6340, 6373, 6372, 6339, 7429, 7462, 7461, 7428
5988, 6341, 6374, 6373, 6340, 7430, 7463, 7462, 7429
5989, 6342, 6375, 6374, 6341, 7431, 7464, 7463, 7430
5990, 6343, 6376, 6375, 6342, 7432, 7465, 7464, 7431
5991, 6344, 6377, 6376, 6343, 7433, 7466, 7465, 7432
5992, 6345, 6378, 6377, 6344, 7434, 7467, 7466, 7433
5993, 6346, 6379, 6378, 6345, 7435, 7468, 7467, 7434
5994, 6347, 6380, 6379, 6346, 7436, 7469, 7468, 7435
5995, 6348, 6381, 6380, 6347, 7437, 7470, 7469, 7436
5996, 6349, 6382, 6381, 6348, 7438, 7471, 7470, 7437
5997, 6350, 6383, 6382, 6349, 7439, 7472, 7471, 7438
5998, 6351, 6384, 6383, 6350, 7440, 7473, 7472, 7439
5999, 6352, 6385, 6384, 6351, 7441, 7474, 7473, 7440
6000, 6353, 6386, 6385, 6352, 7442, 7475, 7474, 7441
6001, 6354, 6387, 6386, 6353, 7443, 7476, 7475, 7442
6002, 6355, 6388, 6387, 6354, 7444, 7477, 7476, 7443
6003, 6356, 6389, 6388, 6355, 7445, 7478, 7477, 7444
6004, 6357, 6390, 6389, 6356, 7446, 7479, 7478, 7445
6005, 6358, 6391, 6390, 6357, 7447, 7480, 7479, 7446
6006, 6359, 6392, 6391, 6358, 7448, 7481, 7480, 7447
6007, 6360, 6393, 6392, 6359, 7449, 7482, 7481, 7448
6008, 6361, 6394, 6393, 6360, 7450, 7483, 7482, 7449
6009, 6362, 6395, 6394, 6361, 7451, 7484, 7483, 7450
6010, 6363, 6396, 6395, 6362, 7452, 7485, 7484, 7451
6011, 6364, 6397, 6396, 6363, 7453, 7486, 7485, 7452
6012, 6365, 6398, 6397, 6364, 7454, 7487, 7486, 7453
6013, 6366, 6399, 6398, 6365, 7455, 7488, 7487, 7454
6014, 6367, 6400, 6399, 6366, 7456, 7489, 7488, 7455
6015, 6368, 6401, 6400, 6367, 7457, 7490, 7489, 7456
6016, 6369, 6402, 6401, 6368, 7458, 7491, 7490, 7457
6017, 6371, 6404, 6403, 6370, 7460, 7493, 7492, 7459
6018, 6372, 6405, 6404, 6371, 7461, 7494, 7493, 7460
6019, 6373, 6406, 6405, 6372, 7462, 7495, 7494, 7461
6020, 6374, 6407, 6406, 6373, 7463, 7496, 7495, 7462
6021, 6375, 6408, 6407, 6374, 7464, 7497, 7496, 7463
6022, 6376, 6409, 6408, 6375, 7465, 7498, 7497, 7464
6023, 6377, 6410, 6409, 6376, 7466, 7499, 7498, 7465
6024, 6378, 6411, 6410, 6377, 7467, 7500, 7499, 7466
6025, 6379, 6412, 6411, 6378, 7468, 7501, 7500, 7467
6026, 6380, 6413, 6412, 6379, 7469, 7502, 7501, 7468
6027, 6381, 6414, 6413, 6380, 7470, 7503, 7502, 7469
6028, 6382, 6415, 6414, 6381, 7471, 7504, 7503, 7470
6029, 6383, 6416, 6415, 6382, 7472, 7505, 7504, 7471
6030, 6384, 6417, 6416, 6383, 7473, 7506, 7505, 7472
6031, 6385, 6418, 6417, 6384, 7474, 7507, 7506, 7473
6032, 6386, 6419, 6418, 6385, 7475, 7508, 7507, 7474
6033, 6387, 6420, 6419, 6386, 7476, 7509, 7508, 7475
6034, 6388, 6421, 6420, 6387, 7477, 7510, 7509, 7476
6035, 6389, 6422, 6421, 6388, 7478, 7511, 7510, 7477
6036, 6390, 6423, 6422, 6389, 7479, 7512, 7511, 7478
6037, 6391, 6424, 6423, 6390, 7480, 7513, 7512, 7479
6038, 6392, 6425, 6424, 6391, 7481, 7514, 7513, 7480
6039, 6393, 6426, 6425, 6392, 7482, 7515, 7514, 7481
6040, 6394, 6427, 6426, 6393, 7483, 7516, 7515, 7482
6041, 6395, 6428, 6427, 6394, 7484, 7517, 7516, 7483
6042, 6396, 6429, 6428, 6395, 7485, 7518, 7517, 7484
6043, 6397, 6430, 6429, 6396, 7486, 7519, 7518, 7485
6044, 6398, 6431, 6430, 6397, 7487, 7520, 7519, 7486
6045, 6399, 6432, 6431, 6398, 7488, 7521, 7520, 7487
6046, 6400, 6433, 6432, 6399, 7489, 7522, 7521, 7488
6047, 6401, 6434, 6433, 6400, 7490, 7523, 7522, 7489
6048, 6402, 6435, 6434, 6401, 7491, 7524, 7523, 7490
6049, 6404, 6437, 6436, 6403, 7493, 7526, 7525, 7492
6050, 6405, 6438, 6437, 6404, 7494, 7527, 7526, 7493
6051, 6406, 6439, 6438, 6405, 7495, 7528, 7527, 7494
6052, 6407, 6440, 6439, 6406, 7496, 7529, 7528, 7495
6053, 6408, 6441, 6440, 6407, 7497, 7530, 7529, 7496
6054, 6409, 6442, 6441, 6408, 7498, 7531, 7530, 7497
6055, 6410, 6443, 6442, 6409, 7499, 7532, 7531, 7498
6056, 6411, 6444, 6443, 6410, 7500, 7533, 7532, 7499
6057, 6412, 6445, 6444, 6411, 7501, 7534, 7533, 7500
6058, 6413, 6446, 6445, 6412, 7502, 7535, 7534, 7501
6059, 6414, 6447, 6446, 6413, 7503, 7536, 7535, 7502
6060, 6415, 6448, 6447, 6414, 7504, 7537, 7536, 7503
6061, 6416, 6449, 6448, 6415, 7505, 7538, 7537, 7504
6062, 6417, 6450, 6449, 6416, 7506, 7539, 7538, 7505
6063, 6418, 6451, 6450, 6417, 7507, 7540, 7539, 7506
6064, 6419, 6452, 6451, 6418, 7508, 7541, 7540, 7507
6065, 6420, 6453, 6452, 6419, 7509, 7542, 7541, 7508
6066, 6421, 6454, 6453, 6420, 7510, 7543, 7542, 7509
6067, 6422, 6455, 6454, 6421, 7511, 7544, 7543, 7510
6068, 6423, 6456, 6455, 6422, 7512, 7545, 7544, 7511
6069, 6424, 6457, 6456, 6423, 7513, 7546, 7545, 7512
6070, 6425, 6458, 6457, 6424, 7514, 7547, 7546, 7513
6071, 6426, 6459, 6458, 6425, 7515, 7548, 7547, 7514
6072, 6427, 6460, 6459, 6426, 7516, 7549, 7548, 7515
6073, 6428, 6461, 6460, 6427, 7517, 7550, 7549, 7516
6074, 6429, 6462, 6461, 6428, 7518, 7551, 7550, 7517
6075, 6430, 6463, 6462, 6429, 7519, 7552, 7551, 7518
6076, 6431, 6464, 6463, 6430, 7520, 7553, 7552, 7519
6077, 6432, 6465, 6464, 6431, 7521, 7554, 7553, 7520
6078, 6433, 6466, 6465, 6432, 7522, 7555, 7554, 7521
6079, 6434, 6467, 6466, 6433, 7523, 7556, 7555, 7522
6080, 6435, 6468, 6467, 6434, 7524, 7557, 7556, 7523
6081, 6437, 6470, 6469, 6436, 7526, 7559, 7558, 7525
6082, 6438, 6471, 6470, 6437, 7527, 7560, 7559, 7526
6083, 6439, 6472, 6471, 6438, 7528, 7561, 7560, 7527
6084, 6440, 6473, 6472, 6439, 7529, 7562, 7561, 7528
6085, 6441, 6474, 6473, 6440, 7530, 7563, 7562, 7529
6086, 6442, 6475, 6474, 6441, 7531, 7564, 7563, 7530
6087, 6443, 6476, 6475, 6442, 7532, 7565, 7564, 7531
6088, 6444, 6477, 6476, 6443, 7533, 7566, 7565, 7532
6089, 6445, 6478, 6477, 6444, 7534, 7567, 7566, 7533
6090, 6446, 6479, 6478, 6445, 7535, 7568, 7567, 7534
6091, 6447, 6480, 6479, 6446, 7536, 7569, 7568, 7535
6092, 6448, 6481, 6480, 6447, 7537, 7570, 7569, 7536
6093, 6449, 6482, 6481, 6448, 7538, 7571, 7570, 7537
6094, 6450, 6483, 6482, 6449, 7539, 7572, 7571, 7538
6095, 6451, 6484, 6483, 6450, 7540, 7573, 7572, 7539
6096, 6452, 6485, 6484, 6451, 7541, 7574, 7573, 7540
6097, 6453, 6486, 6485, 6452, 7542, 7575, 7574, 7541
6098, 6454, 6487, 6486, 6453, 7543, 7576, 7575, 7542
6099, 6455, 6488, 6487, 6454, 7544, 7577, 7576, 7543
6100, 6456, 6489, 6488, 6455, 7545, 7578, 7577, 7544
6101, 6457, 6490, 6489, 6456, 7546, 7579, 7578, 7545
6102, 6458, 6491, 6490, 6457, 7547, 7580, 7579, 7546
6103, 6459, 6492, 6491, 6458, 7548, 7581, 7580, 7547
6104, 6460, 6493, 6492, 6459, 7549, 7582, 7581, 7548
6105, 6461, 6494, 6493, 6460, 7550, 7583, 7582, 7549
6106, 6462, 6495, 6494, 6461, 7551, 7584, 7583, 7550
6107, 6463, 6496, 6495, 6462, 7552, 7585, 7584, 7551
6108, 6464, 6497, 6496, 6463, 7553, 7586, 7585, 7552
6109, 6465, 6498, 6497, 6464, 7554, 7587, 7586, 7553
6110, 6466, 6499, 6498, 6465, 7555, 7588, 7587, 7554
6111, 6467, 6500, 6499, 6466, 7556, 7589, 7588, 7555
6112, 6468, 6501, 6500, 6467, 7557, 7590, 7589, 7556
6113, 6470, 6503, 6502, 6469, 7559, 7592, 7591, 7558
6114, 6471, 6504, 6503, 6470, 7560, 7593, 7592, 7559
6115, 6472, 6505, 6504, 6471, 7561, 7594, 7593, 7560
6116, 6473, 6506, 6505, 6472, 7562, 7595, 7594, 7561
6117, 6474, 6507, 6506, 6473, 7563, 7596, 7595, 7562
6118, 6475, 6508, 6507, 6474, 7564, 7597, 7596, 7563
6119, 6476, 6509, 6508, 6475, 7565, 7598, 7597, 7564
6120, 6477, 6510, 6509, 6476, 7566, 7599, 7598, 7565
6121, 6478, 6511, 6510, 6477, 7567, 7600, 7599, 7566
6122, 6479, 6512, 6511, 6478, 7568, 7601, 7600, 7567
6123, 6480, 6513, 6512, 6479, 7569, 7602, 7601, 7568
6124, 6481, 6514, 6513, 6480, 7570, 7603, 7602, 7569
6125, 6482, 6515, 6514, 6481, 7571, 7604, 7603, 7570
6126, 6483, 6516, 6515, 6482, 7572, 7605, 7604, 7571
6127, 6484, 6517, 6516, 6483, 7573, 7606, 7605, 7572
6128, 6485, 6518, 6517, 6484, 7574, 7607, 7606, 7573
6129, 6486, 6519, 6518, 6485, 7575, 7608, 7607, 7574
6130, 6487, 6520, 6519, 6486, 7576, 7609, 7608, 7575
6131, 6488, 6521, 6520, 6487, 7577, 7610, 7609, 7576
6132, 6489, 6522, 6521, 6488, 7578, 7611, 7610, 7577
6133, 6490, 6523, 6522, 6489, 7579, 7612, 7611, 7578
6134, 6491, 6524, 6523, 6490, 7580, 7613, 7612, 7579
6135, 6492, 6525, 6524, 6491, 7581, 7614, 7613, 7580
6136, 6493, 6526, 6525, 6492, 7582, 7615, 7614, 7581
6137, 6494, 6527, 6526, 6493, 7583, 7616, 7615, 7582
6138, 6495, 6528, 6527, 6494, 7584, 7617, 7616, 7583
6139, 6496, 6529, 6528, 6495, 7585, 7618, 7617, 7584
6140, 6497, 6530, 6529, 6496, 7586, 7619, 7618, 7585
6141, 6498, 6531, 6530, 6497, 7587, 7620, 7619, 7586
6142, 6499, 6532, 6531, 6498, 7588, 7621, 7620, 7587
6143, 6500, 6533, 6532, 6499, 7589, 7622, 7621, 7588
6144, 6501, 6534, 6533, 6500, 7590, 7623, 7622, 7589
6145, 6536, 6569, 6568, 6535, 7625, 7658, 7657, 7624
6146, 6537, 6570, 6569, 6536, 7626, 7659, 7658, 7625
6147, 6538, 6571, 6570, 6537, 7627, 7660, 7659, 7626
6148, 6539, 6572, 6571, 6538, 7628, 7661, 7660, 7627
6149, 6540, 6573, 6572, 6539, 7629, 7662, 7661, 7628
6150, 6541, 6574, 6573, 6540, 7630, 7663, 7662, 7629
6151, 6542, 6575, 6574, 6541, 7631, 7664, 7663, 7630
6152, 6543, 6576, 6575, 6542, 7632, 7665, 7664, 7631
6153, 6544, 6577, 6576, 6543, 7633, 7666, 7665, 7632
6154, 6545, 6578, 6577, 6544, 7634, 7667, 7666, 7633
6155, 6546, 6579, 6578, 6545, 7635, 7668, 7667, 7634
6156, 6547, 6580, 6579, 6546, 7636, 7669, 7668, 7635
6157, 6548, 6581, 6580, 6547, 7637, 7670, 7669, 7636
6158, 6549, 6582, 6581, 6548, 7638, 7671, 7670, 7637
6159, 6550, 6583, 6582, 6549, 7639, 7672, 7671, 7638
6160, 6551, 6584, 6583, 6550, 7640, 7673, 7672, 7639
6161, 6552, 6585, 6584, 6551, 7641, 7674, 7673, 7640
6162, 6553, 6586, 6585, 6552, 7642, 7675, 7674, 7641
6163, 6554, 6587, 6586, 6553, 7643, 7676, 7675, 7642
6164, 6555, 6588, 6587, 6554, 7644, 7677, 7676, 7643
6165, 6556, 6589, 6588, 6555, 7645, 7678, 7677, 7644
6166, 6557, 6590, 6589, 6556, 7646, 7679, 7678, 7645
6167, 6558, 6591, 6590, 6557, 7647, 7680, 7679, 7646
6168, 6559, 6592, 6591, 6558, 7648, 7681, 7680, 7647
6169, 6560, 6593, 6592, 6559, 7649, 7682, 7681, 7648
6170, 6561, 6594, 6593, 6560, 7650, 7683, 7682, 7649
6171, 6562, 6595, 6594, 6561, 7651, 7684, 7683, 7650
6172, 6563, 6596, 6595, 6562, 7652, 7685, 7684, 7651
6173, 6564, 6597, 6596, 6563, 7653, 7686, 7685, 7652
6174, 6565, 6598, 6597, 6564, 7654, 7687, 7686, 7653
6175, 6566, 6599, 6598, 6565, 7655, 7688, 7687, 7654
6176, 6567, 6600, 6599, 6566, 7656, 7689, 7688, 7655
6177, 6569, 6602, 6601, 6568, 7658, 7691, 7690, 7657
6178, 6570, 6603, 6602, 6569, 7659, 7692, 7691, 7658
6179, 6571, 6604, 6603, 6570, 7660, 7693, 7692, 7659
6180, 6572, 6605, 6604, 6571, 7661, 7694, 7693, 7660
6181, 6573, 6606, 6605, 6572, 7662, 7695, 7694, 7661
6182, 6574, 6607, 6606, 6573, 7663, 7696, 7695, 7662
6183, 6575, 6608, 6607, 6574, 7664, 7697, 7696, 7663
6184, 6576, 6609, 6608, 6575, 7665, 7698, 7697, 7664
6185, 6577, 6610, 6609, 6576, 7666, 7699, 7698, 7665
6186, 6578, 6611, 6610, 6577, 7667, 7700, 7699, 7666
6187, 6579, 6612, 6611, 6578, 7668, 7701, 7700, 7667
6188, 6580, 6613, 6612, 6579, 7669, 7702, 7701, 7668
6189, 6581, 6614, 6613, 6580, 7670, 7703, 7702, 7669
6190, 6582, 6615, 6614, 6581, 7671, 7704, 7703, 7670
6191, 6583, 6616, 6615, 6582, 7672, 7705, 7704, 7671
6192, 6584, 6617, 6616, 6583, 7673, 7706, 7705, 7672
6193, 6585, 6618, 6617, 6584, 7674, 7707, 7706, 7673
6194, 6586, 6619, 6618, 6585, 7675, 7708, 7707, 7674
6195, 6587, 6620, 6619, 6586, 7676, 7709, 7708, 7675
6196, 6588, 6621, 6620, 6587, 7677, 7710, 7709, 7676
6197, 6589, 6622, 6621, 6588, 7678, 7711, 7710, 7677
6198, 6590, 6623, 6622, 6589, 7679, 7712, 7711, 7678
6199, 6591, 6624, 6623, 6590, 7680, 7713, 7712, 7679
6200, 6592, 6625, 6624, 6591, 7681, 7714, 7713, 7680
6201, 6593, 6626, 6625, 6592, 7682, 7715, 7714, 7681
6202, 6594, 6627, 6626, 6593, 7683, 7716, 7715, 7682
6203, 6595, 6628, 6627, 6594, 7684, 7717, 7716, 7683
6204, 6596, 6629, 6628, 6595, 7685, 7718, 7717, 7684
6205, 6597, 6630, 6629, 6596, 7686, 7719, 7718, 7685
6206, 6598, 6631, 6630, 6597, 7687, 7720, 7719, 7686
6207, 6599, 6632, 6631, 6598, 7688, 7721, 7720, 7687
6208, 6600, 6633, 6632, 6599, 7689, 7722, 7721, 7688
6209, 6602, 6635, 6634, 6601, 7691, 7724, 7723, 7690
6210, 6603, 6636, 6635, 6602, 7692, 7725, 7724, 7691
6211, 6604, 6637, 6636, 6603, 7693, 7726, 7725, 7692
6212, 6605, 6638, 6637, 6604, 7694, 7727, 7726, 7693
6213, 6606, 6639, 6638, 6605, 7695, 7728, 7727, 7694
6214, 6607, 6640, 6639, 6606, 7696, 7729, 7728, 7695
6215, 6608, 6641, 6640, 6607, 7697, 7730, 7729, 7696
6216, 6609, 6642, 6641, 6608, 7698, 7731, 7730, 7697
6217, 6610, 6643, 6642, 6609, 7699, 7732, 7731, 7698
6218, 6611, 6644, 6643, 6610, 7700, 7733, 7732, 7699
6219, 6612, 6645, 6644, 6611, 7701, 7734, 7733, 7700
6220, 6613, 6646, 6645, 6612, 7702, 7735, 7734, 7701
6221, 6614, 6647, 6646, 6613, 7703, 7736, 7735, 7702
6222, 6615, 6648, 6647, 6614, 7704, 7737, 7736, 7703
6223, 6616, 6649, 6648, 6615, 7705, 7738, 7737, 7704
6224, 6617, 6650, 6649, 6616, 7706, 7739, 7738, 7705
6225, 6618, 6651, 6650, 6617, 7707, 7740, 7739, 7706
6226, 6619, 6652, 6651, 6618, 7708, 7741, 7740, 7707
6227, 6620, 6653, 6652, 6619, 7709, 7742, 7741, 7708
6228, 6621, 6654, 6653, 6620, 7710, 7743, 7742, 7709
6229, 6622, 6655, 6654, 6621, 7711, 7744, 7743, 7710
6230, 6623, 6656, 6655, 6622, 7712, 7745, 7744, 7711
6231, 6624, 6657, 6656, 6623, 7713, 7746, 7745, 7712
6232, 6625, 6658, 6657, 6624, 7714, 7747, 7746, 7713
6233, 6626, 6659, 6658, 6625, 7715, 7748, 7747, 7714
6234, 6627, 6660, 6659, 6626, 7716, 7749, 7748, 7715
6235, 6628, 6661, 6660, 6627, 7717, 7750, 7749, 7716
6236, 6629, 6662, 6661, 6628, 7718, 7751, 7750, 7717
6237, 6630, 6663, 6662, 6629, 7719, 7752, 7751, 7718
6238, 6631, 6664, 6663, 6630, 7720, 7753, 7752, 7719
6239, 6632, 6665, 6664, 6631, 7721, 7754, 7753, 7720
6240, 6633, 6666, 6665, 6632, 7722, 7755, 7754, 7721
6241, 6635, 6668, 6667, 6634, 7724, 7757, 7756, 7723
6242, 6636, 6669, 6668, 6635, 7725, 7758, 7757, 7724
6243, 6637, 6670, 6669, 6636, 7726, 7759, 7758, 7725
6244, 6638, 6671, 6670, 6637, 7727, 7760, 7759, 7726
6245, 6639, 6672, 6671, 6638, 7728, 7761, 7760, 7727
6246, 6640, 6673, 6672, 6639, 7729, 7762, 7761, 7728
6247, 6641, 6674, 6673, 6640, 7730, 7763, 7762, 7729
6248, 6642, 6675, 6674, 6641, 7731, 7764, 7763, 7730
6249, 6643, 6676, 6675, 6642, 7732, 7765, 7764, 7731
6250, 6644, 6677, 6676, 6643, 7733, 7766, 7765, 7732
6251, 6645, 6678, 6677, 6644, 7734, 7767, 7766, 7733
6252, 6646, 6679, 6678, 6645, 7735, 7768, 7767, 7734
6253, 6647, 6680, 6679, 6646, 7736, 7769, 7768, 7735
6254, 6648, 6681, 6680, 6647, 7737, 7770, 7769, 7736
6255, 6649, 6682, 6681, 6648, 7738, 7771, 7770, 7737
6256, 6650, 6683, 6682, 6649, 7739, 7772, 7771, 7738
6257, 6651, 6684, 6683, 6650, 7740, 7773, 7772, 7739
6258, 6652, 6685, 6684, 6651, 7741, 7774, 7773, 7740
6259, 6653, 6686, 6685, 6652, 7742, 7775, 7774, 7741
6260, 6654, 6687, 6686, 6653, 7743, 7776, 7775, 7742
6261, 6655, 6688, 6687, 6654, 7744, 7777, 7776, 7743
6262, 6656, 6689, 6688, 6655, 7745, 7778, 7777, 7744
6263, 6657, 6690, 6689, 6656, 7746, 7779, 7778, 7745
6264, 6658, 6691, 6690, 6657, 7747, 7780, 7779, 7746
6265, 6659, 6692, 6691, 6658, 7748, 7781, 7780, 7747
6266, 6660, 6693, 6692, 6659, 7749, 7782, 7781, 7748
6267, 6661, 6694, 6693, 6660, 7750, 7783, 7782, 7749
6268, 6662, 6695, 6694, 6661, 7751, 7784, 7783, 7750
6269, 6663, 6696, 6695, 6662, 7752, 7785, 7784, 7751
6270, 6664, 6697, 6696, 6663, 7753, 7786, 7785, 7752
6271, 6665, 6698, 6697, 6664, 7754, 7787, 7786, 7753
6272, 6666, 6699, 6698, 6665, 7755, 7788, 7787, 7754
6273, 6668, 6701, 6700, 6667, 7757, 7790, 7789, 7756
6274, 6669, 6702, 6701, 6668, 7758, 7791, 7790, 7757
6275, 6670, 6703, 6702, 6669, 7759, 7792, 7791, 7758
6276, 6671, 6704, 6703, 6670, 7760, 7793, 7792, 7759
6277, 6672, 6705, 6704, 6671, 7761, 7794, 7793, 7760
6278, 6673, 6706, 6705, 6672, 7762, 7795, 7794, 7761
6279, 6674, 6707, 6706, 6673, 7763, 7796, 7795, 7762
6280, 6675, 6708, 6707, 6674, 7764, 7797, 7796, 7763
6281, 6676, 6709, 6708, 6675, 7765, 7798, 7797, 7764
6282, 6677, 6710, 6709, 6676, 7766, 7799, 7798, 7765
6283, 6678, 6711, 6710, 6677, 7767, 7800, 7799, 7766
6284, 6679, 6712, 6711, 6678, 7768, 7801, 7800, 7767
6285, 6680, 6713, 6712, 6679, 7769, 7802, 7801, 7768
6286, 6681, 6714, 6713, 6680, 7770, 7803, 7802, 7769
6287, 6682, 6715, 6714, 6681, 7771, 7804, 7803, 7770
6288, 6683, 6716, 6715, 6682, 7772, 7805, 7804, 7771
6289, 6684, 6717, 6716, 6683, 7773, 7806, 7805, 7772
6290, 6685, 6718, 6717, 6684, 7774, 7807, 7806, 7773
6291, 6686, 6719, 6718, 6685, 7775, 7808, 7807, 7774
6292, 6687, 6720, 6719, 6686, 7776, 7809, 7808, 7775
6293, 6688, 6721, 6720, 6687, 7777, 7810, 7809, 7776
6294, 6689, 6722, 6721, 6688, 7778, 7811, 7810, 7777
6295, 6690, 6723, 6722, 6689, 7779, 7812, 7811, 7778
6296, 6691, 6724, 6723, 6690, 7780, 7813, 7812, 7779
6297, 6692, 6725, 6724, 6691, 7781, 7814, 7813, 7780
6298, 6693, 6726, 6725, 6692, 7782, 7815, 7814, 7781
6299, 6694, 6727, 6726, 6693, 7783, 7816, 7815, 7782
6300, 6695, 6728, 6727, 6694, 7784, 7817, 7816, 7783
6301, 6696, 6729, 6728, 6695, 7785, 7818, 7817, 7784
6302, 6697, 6730, 6729, 6696, 7786, 7819, 7818, 7785
6303, 6698, 6731, 6730, 6697, 7787, 7820, 7819, 7786
6304, 6699, 6732, 6731, 6698, 7788, 7821, 7820, 7787
6305, 6701, 6734, 6733, 6700, 7790, 7823, 7822, 7789
6306, 6702, 6735, 6734, 6701, 7791, 7824, 7823, 7790
6307, 6703, 6736, 6735, 6702, 7792, 7825, 7824, 7791
6308, 6704, 6737, 6736, 6703, 7793, 7826, 7825, 7792
6309, 6705, 6738, 6737, 6704, 7794, 7827, 7826, 7793
6310, 6706, 6739, 6738, 6705, 7795, 7828, 7827, 7794
6311, 6707, 6740, 6739, 6706, 7796, 7829, 7828, 7795
6312, 6708, 6741, 6740, 6707, 7797, 7830, 7829, 7796
6313, 6709, 6742, 6741, 6708, 7798, 7831, 7830, 7797
6314, 6710, 6743, 6742, 6709, 7799, 7832, 7831, 7798
6315, 6711, 6744, 6743, 6710, 7800, 7833, 7832, 7799
6316, 6712, 6745, 6744, 6711, 7801, 7834, 7833, 7800
6317, 6713, 6746, 6745, 6712, 7802, 7835, 7834, 7801
6318, 6714, 6747, 6746, 6713, 7803, 7836, 7835, 7802
6319, 6715, 6748, 6747, 6714, 7804, 7837, 7836, 7803
6320, 6716, 6749, 6748, 6715, 7805, 7838, 7837, 7804
6321, 6717, 6750, 6749, 6716, 7806, 7839, 7838, 7805
6322, 6718, 6751, 6750, 6717, 7807, 7840, 7839, 7806
6323, 6719, 6752, 6751, 6718, 7808, 7841, 7840, 7807
6324, 6720, 6753, 6752, 6719, 7809, 7842, 7841, 7808
6325, 6721, 6754, 6753, 6720, 7810, 7843, 7842, 7809
6326, 6722, 6755, 6754, 6721, 7811, 7844, 7843, 7810
6327, 6723, 6756, 6755, 6722, 7812, 7845, 7844, 7811
6328, 6724, 6757, 6756, 6723, 7813, 7846, 7845, 7812
6329, 6725, 6758, 6757, 6724, 7814, 7847, 7846, 7813
6330, 6726, 6759, 6758, 6725, 7815, 7848, 7847, 7814
6331, 6727, 6760, 6759, 6726, 7816, 7849, 7848, 7815
6332, 6728, 6761, 6760, 6727, 7817, 7850, 7849, 7816
6333, 6729, 6762, 6761, 6728, 7818, 7851, 7850, 7817
6334, 6730, 6763, 6762, 6729, 7819, 7852, 7851, 7818
6335, 6731, 6764, 6763, 6730, 7820, 7853, 7852, 7819
6336, 6732, 6765, 6764, 6731, 7821, 7854, 7853, 7820
6337, 6734, 6767, 6766, 6733, 7823, 7856, 7855, 7822
6338, 6735, 6768, 6767, 6734, 7824, 7857, 7856, 7823
6339, 6736, 6769, 6768, 6735, 7825, 7858, 7857, 7824
6340, 6737, 6770, 6769, 6736, 7826, 7859, 7858, 7825
6341, 6738, 6771, 6770, 6737, 7827, 7860, 7859, 7826
6342, 6739, 6772, 6771, 6738, 7828, 7861, 7860, 7827
6343, 6740, 6773, 6772, 6739, 7829, 7862, 7861, 7828
6344, 6741, 6774, 6773, 6740, 7830, 7863, 7862, 7829
6345, 6742, 6775, 6774, 6741, 7831, 7864, 7863, 7830
6346, 6743, 6776, 6775, 6742, 7832, 7865, 7864, 7831
6347, 6744, 6777, 6776, 6743, 7833, 7866, 7865, 7832
6348, 6745, 6778, 6777, 6744, 7834, 7867, 7866, 7833
6349, 6746, 6779, 6778, 6745, 7835, 7868, 7867, 7834
6350, 6747, 6780, 6779, 6746, 7836, 7869, 7868, 7835
6351, 6748, 6781, 6780, 6747, 7837, 7870, 7869, 7836
6352, 6749, 6782, 6781, 6748, 7838, 7871, 7870, 7837
6353, 6750, 6783, 6782, 6749, 7839, 7872, 7871, 7838
6354, 6751, 6784, 6783, 6750, 7840, 7873, 7872, 7839
6355, 6752, 6785, 6784, 6751, 7841, 7874, 7873, 7840
6356, 6753, 6786, 6785, 6752, 7842, 7875, 7874, 7841
6357, 6754, 6787, 6786, 6753, 7843, 7876, 7875, 7842
6358, 6755, 6788, 6787, 6754, 7844, 7877, 7876, 7843
6359, 6756, 6789, 6788, 6755, 7845, 7878, 7877, 7844
6360, 6757, 6790, 6789, 6756, 7846, 7879, 7878, 7845
6361, 6758, 6791, 6790, 6757, 7847, 7880, 7879, 7846
6362, 6759, 6792, 6791, 6758, 7848, 7881, 7880, 7847
6363, 6760, 6793, 6792, 6759, 7849, 7882, 7881, 7848
6364, 6761, 6794, 6793, 6760, 7850, 7883, 7882, 7849
6365, 6762, 6795, 6794, 6761, 7851, 7884, 7883, 7850
6366, 6763, 6796, 6795, 6762, 7852, 7885, 7884, 7851
6367, 6764, 6797, 6796, 6763, 7853, 7886, 7885, 7852
6368, 6765, 6798, 6797, 6764, 7854, 7887, 7886, 7853
6369, 6767, 6800, 6799, 6766, 7856, 7889, 7888, 7855
6370, 6768, 6801, 6800, 6767, 7857, 7890, 7889, 7856
6371, 6769, 6802, 6801, 6768, 7858, 7891, 7890, 7857
6372, 6770, 6803, 6802, 6769, 7859, 7892, 7891, 7858
6373, 6771, 6804, 6803, 6770, 7860, 7893, 7892, 7859
6374, 6772, 6805, 6804, 6771, 7861, 7894, 7893, 7860
6375, 6773, 6806, 6805, 6772, 7862, 7895, 7894, 7861
6376, 6774, 6807, 6806, 6773, 7863, 7896, 7895, 7862
6377, 6775, 6808, 6807, 6774, 7864, 7897, 7896, 7863
6378, 6776, 6809, 6808, 6775, 7865, 7898, 7897, 7864
6379, 6777, 6810, 6809, 6776, 7866, 7899, 7898, 7865
6380, 6778, 6811, 6810, 6777, 7867, 7900, 7899, 7866
6381, 6779, 6812, 6811, 6778, 7868, 7901, 7900, 7867
6382, 6780, 6813, 6812, 6779, 7869, 7902, 7901, 7868
6383, 6781, 6814, 6813, 6780, 7870, 7903, 7902, 7869
6384, 6782, 6815, 6814, 6781, 7871, 7904, 7903, 7870
6385, 6783, 6816, 6815, 6782, 7872, 7905, 7904, 7871
6386, 6784, 6817, 6816, 6783, 7873, 7906, 7905, 7872
6387, 6785, 6818, 6817, 6784, 7874, 7907, 7906, 7873
6388, 6786, 6819, 6818, 6785, 7875, 7908, 7907, 7874
6389, 6787, 6820, 6819, 6786, 7876, 7909, 7908, 7875
6390, 6788, 6821, 6820, 6787, 7877, 7910, 7909, 7876
6391, 6789, 6822, 6821, 6788, 7878, 7911, 7910, 7877
6392, 6790, 6823, 6822, 6789, 7879, 7912, 7911, 7878
6393, 6791, 6824, 6823, 6790, 7880, 7913, 7912, 7879
6394, 6792, 6825, 6824, 6791, 7881, 7914, 7913, 7880
6395, 6793, 6826, 6825, 6792, 7882, 7915, 7914, 7881
6396, 6794, 6827, 6826, 6793, 7883, 7916, 7915, 7882
6397, 6795, 6828, 6827, 6794, 7884, 7917, 7916, 7883
6398, 6796, 6829, 6828, 6795, 7885, 7918, 7917, 7884
6399, 6797, 6830, 6829, 6796, 7886, 7919, 7918, 7885
6400, 6798, 6831, 6830, 6797, 7887, 7920, 7919, 7886
6401, 6800, 6833, 6832, 6799, 7889, 7922, 7921, 7888
6402, 6801, 6834, 6833, 6800, 7890, 7923, 7922, 7889
6403, 6802, 6835, 6834, 6801, 7891, 7924, 7923, 7890
6404, 6803, 6836, 6835, 6802, 7892, 7925, 7924, 7891
6405, 6804, 6837, 6836, 6803, 7893, 7926, 7925, 7892
6406, 6805, 6838, 6837, 6804, 7894, 7927, 7926, 7893
6407, 6806, 6839, 6838, 6805, 7895, 7928, 7927, 7894
6408, 6807, 6840, 6839, 6806, 7896, 7929, 7928, 7895
6409, 6808, 6841, 6840, 6807, 7897, 7930, 7929, 7896
6410, 6809, 6842, 6841, 6808, 7898, 7931, 7930, 7897
6411, 6810, 6843, 6842, 6809, 7899, 7932, 7931, 7898
6412, 6811, 6844, 6843, 6810, 7900, 7933, 7932, 7899
6413, 6812, 6845, 6844, 6811, 7901, 7934, 7933, 7900
6414, 6813, 6846, 6845, 6812, 7902, 7935, 7934, 7901
6415, 6814, 6847, 6846, 6813, 7903, 7936, 7935, 7902
6416, 6815, 6848, 6847, 6814, 7904, 7937, 7936, 7903
6417, 6816, 6849, 6848, 6815, 7905, 7938, 7937, 7904
6418, 6817, 6850, 6849, 6816, 7906, 7939, 7938, 7905
6419, 6818, 6851, 6850, 6817, 7907, 7940, 7939, 7906
6420, 6819, 6852, 6851, 6818, 7908, 7941, 7940, 7907
6421, 6820, 6853, 6852, 6819, 7909, 7942, 7941, 7908
6422, 6821, 6854, 6853, 6820, 7910, 7943, 7942, 7909
6423, 6822, 6855, 6854, 6821, 7911, 7944, 7943, 7910
6424, 6823, 6856, 6855, 6822, 7912, 7945, 7944, 7911
6425, 6824, 6857, 6856, 6823, 7913, 7946, 7945, 7912
6426, 6825, 6858, 6857, 6824, 7914, 7947, 7946, 7913
6427, 6826, 6859, 6858, 6825, 7915, 7948, 7947, 7914
6428, 6827, 6860, 6859, 6826, 7916, 7949, 7948, 7915
6429, 6828, 6861, 6860, 6827, 7917, 7950, 7949, 7916
6430, 6829, 6862, 6861, 6828, 7918, 7951, 7950, 7917
6431, 6830, 6863, 6862, 6829, 7919, 7952, 7951, 7918
6432, 6831, 6864, 6863, 6830, 7920, 7953, 7952, 7919
6433, 6833, 6866, 6865, 6832, 7922, 7955, 7954, 7921
6434, 6834, 6867, 6866, 6833, 7923, 7956, 7955, 7922
6435, 6835, 6868, 6867, 6834, 7924, 7957, 7956, 7923
6436, 6836, 6869, 6868, 6835, 7925, 7958, 7957, 7924
6437, 6837, 6870, 6869, 6836, 7926, 7959, 7958, 7925
6438, 6838, 6871, 6870, 6837, 7927, 7960, 7959, 7926
6439, 6839, 6872, 6871, 6838, 7928, 7961, 7960, 7927
6440, 6840, 6873, 6872, 6839, 7929, 7962, 7961, 7928
6441, 6841, 6874, 6873, 6840, 7930, 7963, 7962, 7929
6442, 6842, 6875, 6874, 6841, 7931, 7964, 7963, 7930
6443, 6843, 6876, 6875, 6842, 7932, 7965, 7964, 7931
6444, 6844, 6877, 6876, 6843, 7933, 7966, 7965, 7932
6445, 6845, 6878, 6877, 6844, 7934, 7967, 7966, 7933
6446, 6846, 6879, 6878, 6845, 7935, 7968, 7967, 7934
6447, 6847, 6880, 6879, 6846, 7936, 7969, 7968, 7935
6448, 6848, 6881, 6880, 6847, 7937, 7970, 7969, 7936
6449, 6849, 6882, 6881, 6848, 7938, 7971, 7970, 7937
6450, 6850, 6883, 6882, 6849, 7939, 7972, 7971, 7938
6451, 6851, 6884, 6883, 6850, 7940, 7973, 7972, 7939
6452, 6852, 6885, 6884, 6851, 7941, 7974, 7973, 7940
6453, 6853, 6886, 6885, 6852, 7942, 7975, 7974, 7941
6454, 6854, 6887, 6886, 6853, 7943, 7976, 7975, 7942
6455, 6855, 6888, 6887, 6854, 7944, 7977, 7976, 7943
6456, 6856, 6889, 6888, 6855, 7945, 7978, 7977, 7944
6457, 6857, 6890, 6889, 6856, 7946, 7979, 7978, 7945
6458, 6858, 6891, 6890, 6857, 7947, 7980, 7979, 7946
6459, 6859, 6892, 6891, 6858, 7948, 7981, 7980, 7947
6460, 6860, 6893, 6892, 6859, 7949, 7982, 7981, 7948
6461, 6861, 6894, 6893, 6860, 7950, 7983, 7982, 7949
6462, 6862, 6895, 6894, 6861, 7951, 7984, 7983, 7950
6463, 6863, 6896, 6895, 6862, 7952, 7985, 7984, 7951
6464, 6864, 6897, 6896, 6863, 7953, 7986, 7985, 7952
6465, 6866, 6899, 6898, 6865, 7955, 7988, 7987, 7954
6466, 6867, 6900, 6899, 6866, 7956, 7989, 7988, 7955
6467, 6868, 6901, 6900, 6867, 7957, 7990, 7989, 7956
6468, 6869, 6902, 6901, 6868, 7958, 7991, 7990, 7957
6469, 6870, 6903, 6902, 6869, 7959, 7992, 7991, 7958
6470, 6871, 6904, 6903, 6870, 7960, 7993, 7992, 7959
6471, 6872, 6905, 6904, 6871, 7961, 7994, 7993, 7960
6472, 6873, 6906, 6905, 6872, 7962, 7995, 7994, 7961
6473, 6874, 6907, 6906, 6873, 7963, 7996, 7995, 7962
6474, 6875, 6908, 6907, 6874, 7964, 7997, 7996, 7963
6475, 6876, 6909, 6908, 6875, 7965, 7998, 7997, 7964
6476, 6877, 6910, 6909, 6876, 7966, 7999, 7998, 7965
6477, 6878, 6911, 6910, 6877, 7967, 8000, 7999, 7966
6478, 6879, 6912, 6911, 6878, 7968, 8001, 8000, 7967
6479, 6880, 6913, 6912, 6879, 7969, 8002, 8001, 7968
6480, 6881, 6914, 6913, 6880, 7970, 8003, 8002, 7969
6481, 6882, 6915, 6914, 6881, 7971, 8004, 8003, 7970
6482, 6883, 6916, 6915, 6882, 7972, 8005, 8004, 7971
6483, 6884, 6917, 6916, 6883, 7973, 8006, 8005, 7972
6484, 6885, 6918, 6917, 6884, 7974, 8007, 8006, 7973
6485, 6886, 6919, 6918, 6885, 7975, 8008, 8007, 7974
6486, 6887, 6920, 6919, 6886, 7976, 8009, 8008, 7975
6487, 6888, 6921, 6920, 6887, 7977, 8010, 8009, 7976
6488, 6889, 6922, 6921, 6888, 7978, 8011, 8010, 7977
6489, 6890, 6923, 6922, 6889, 7979, 8012, 8011, 7978
6490, 6891, 6924, 6923, 6890, 7980, 8013, 8012, 7979
6491, 6892, 6925, 6924, 6891, 7981, 8014, 8013, 7980
6492, 6893, 6926, 6925, 6892, 7982, 8015, 8014, 7981
6493, 6894, 6927, 6926, 6893, 7983, 8016, 8015, 7982
6494, 6895, 6928, 6927, 6894, 7984, 8017, 8016, 7983
6495, 6896, 6929, 6928, 6895, 7985, 8018, 8017, 7984
6496, 6897, 6930, 6929, 6896, 7986, 8019, 8018, 7985
6497, 6899, 6932, 6931, 6898, 7988, 8021, 8020, 7987
6498, 6900, 6933, 6932, 6899, 7989, 8022, 8021, 7988
6499, 6901, 6934, 6933, 6900, 7990, 8023, 8022, 7989
6500, 6902, 6935, 6934, 6901, 7991, 8024, 8023, 7990
6501, 6903, 6936, 6935, 6902, 7992, 8025, 8024, 7991
6502, 6904, 6937, 6936, 6903, 7993, 8026, 8025, 7992
6503, 6905, 6938, 6937, 6904, 7994, 8027, 8026, 7993
6504, 6906, 6939, 6938, 6905, 7995, 8028, 8027, 7994
6505, 6907, 6940, 6939, 6906, 7996, 8029, 8028, 7995
6506, 6908, 6941, 6940, 6907, 7997, 8030, 8029, 7996
6507, 6909, 6942, 6941, 6908, 7998, 8031, 8030, 7997
6508, 6910, 6943, 6942, 6909, 7999, 8032, 8031, 7998
6509, 6911, 6944, 6943, 6910, 8000, 8033, 8032, 7999
6510, 6912, 6945, 6944, 6911, 8001, 8034, 8033, 8000
6511, 6913, 6946, 6945, 6912, 8002, 8035, 8034, 8001
6512, 6914, 6947, 6946, 6913, 8003, 8036, 8035, 8002
6513, 6915, 6948, 6947, 6914, 8004, 8037, 8036, 8003
6514, 6916, 6949, 6948, 6915, 8005, 8038, 8037, 8004
6515, 6917, 6950, 6949, 6916, 8006, 8039, 8038, 8005
6516, 6918, 6951, 6950, 6917, 8007, 8040, 8039, 8006
6517, 6919, 6952, 6951, 6918, 8008, 8041, 8040, 8007
6518, 6920, 6953, 6952, 6919, 8009, 8042, 8041, 8008
6519, 6921, 6954, 6953, 6920, 8010, 8043, 8042, 8009
6520, 6922, 6955, 6954, 6921, 8011, 8044, 8043, 8010
6521, 6923, 6956, 6955, 6922, 8012, 8045, 8044, 8011
6522, 6924, 6957, 6956, 6923, 8013, 8046, 8045, 8012
6523, 6925, 6958, 6957, 6924, 8014, 8047, 8046, 8013
6524, 6926, 6959, 6958, 6925, 8015, 8048, 8047, 8014
6525, 6927, 6960, 6959, 6926, 8016, 8049, 8048, 8015
6526, 6928, 6961, 6960, 6927, 8017, 8050, 8049, 8016
6527, 6929, 6962, 6961, 6928, 8018, 8051, 8050, 8017
6528, 6930, 6963, 6962, 6929, 8019, 8052, 8051, 8018
6529, 6932, 6965, 6964, 6931, 8021, 8054, 8053, 8020
6530, 6933, 6966, 6965, 6932, 8022, 8055, 8054, 8021
6531, 6934, 6967, 6966, 6933, 8023, 8056, 8055, 8022
6532, 6935, 6968, 6967, 6934, 8024, 8057, 8056, 8023
6533, 6936, 6969, 6968, 6935, 8025, 8058, 8057, 8024
6534, 6937, 6970, 6969, 6936, 8026, 8059, 8058, 8025
6535, 6938, 6971, 6970, 6937, 8027, 8060, 8059, 8026
6536, 6939, 6972, 6971, 6938, 8028, 8061, 8060, 8027
6537, 6940, 6973, 6972, 6939, 8029, 8062, 8061, 8028
6538, 6941, 6974, 6973, 6940, 8030, 8063, 8062, 8029
6539, 6942, 6975, 6974, 6941, 8031, 8064, 8063, 8030
6540, 6943, 6976, 6975, 6942, 8032, 8065, 8064, 8031
6541, 6944, 6977, 6976, 6943, 8033, 8066, 8065, 8032
6542, 6945, 6978, 6977, 6944, 8034, 8067, 8066, 8033
6543, 6946, 6979, 6978, 6945, 8035, 8068, 8067, 8034
6544, 6947, 6980, 6979, 6946, 8036, 8069, 8068, 8035
6545, 6948, 6981, 6980, 6947, 8037, 8070, 8069, 8036
6546, 6949, 6982, 6981, 6948, 8038, 8071, 8070, 8037
6547, 6950, 6983, 6982, 6949, 8039, 8072, 8071, 8038
6548, 6951, 6984, 6983, 6950, 8040, 8073, 8072, 8039
6549, 6952, 6985, 6984, 6951, 8041, 8074, 8073, 8040
6550, 6953, 6986, 6985, 6952, 8042, 8075, 8074, 8041
6551, 6954, 6987, 6986, 6953, 8043, 8076, 8075, 8042
6552, 6955, 6988, 6987, 6954, 8044, 8077, 8076, 8043
6553, 6956, 6989, 6988, 6955, 8045, 8078, 8077, 8044
6554, 6957, 6990, 6989, 6956, 8046, 8079, 8078, 8045
6555, 6958, 6991, 6990, 6957, 8047, 8080, 8079, 8046
6556, 6959, 6992, 6991, 6958, 8048, 8081, 8080, 8047
6557, 6960, 6993, 6992, 6959, 8049, 8082, 8081, 8048
6558, 6961, 6994, 6993, 6960, 8050, 8083, 8082, 8049
6559, 6962, 6995, 6994, 6961, 8051, 8084, 8083, 8050
6560, 6963, 6996, 6995, 6962, 8052, 8085, 8084, 8051
6561, 6965, 6998, 6997, 6964, 8054, 8087, 8086, 8053
6562, 6966, 6999, 6998, 6965, 8055, 8088, 8087, 8054
6563, 6967, 7000, 6999, 6966, 8056, 8089, 8088, 8055
6564, 6968, 7001, 7000, 6967, 8057, 8090, 8089, 8056
6565, 6969, 7002, 7001, 6968, 8058, 8091, 8090, 8057
6566, 6970, 7003, 7002, 6969, 8059, 8092, 8091, 8058
6567, 6971, 7004, 7003, 6970, 8060, 8093, 8092, 8059
6568, 6972, 7005, 7004, 6971, 8061, 8094, 8093, 8060
6569, 6973, 7006, 7005, 6972, 8062, 8095, 8094, 8061
6570, 6974, 7007, 7006, 6973, 8063, 8096, 8095, 8062
6571, 6975, 7008, 7007, 6974, 8064, 8097, 8096, 8063
6572, 6976, 7009, 7008, 6975, 8065, 8098, 8097, 8064
6573, 6977, 7010, 7009, 6976, 8066, 8099, 8098, 8065
6574, 6978, 7011, 7010, 6977, 8067, 8100, 8099, 8066
6575, 6979, 7012, 7011, 6978, 8068, 8101, 8100, 8067
6576, 6980, 7013, 7012, 6979, 8069, 8102, 8101, 8068
6577, 6981, 7014, 7013, 6980, 8070, 8103, 8102, 8069
6578, 6982, 7015, 7014, 6981, 8071, 8104, 8103, 8070
6579, 6983, 7016, 7015, 6982, 8072, 8105, 8104, 8071
6580, 6984, 7017, 7016, 6983, 8073, 8106, 8105, 8072
6581, 6985, 7018, 7017, 6984, 8074, 8107, 8106, 8073
6582, 6986, 7019, 7018, 6985, 8075, 8108, 8107, 8074
6583, 6987, 7020, 7019, 6986, 8076, 8109, 8108, 8075
6584, 6988, 7021, 7020, 6987, 8077, 8110, 8109, 8076
6585, 6989, 7022, 7021, 6988, 8078, 8111, 8110, 8077
6586, 6990, 7023, 7022, 6989, 8079, 8112, 8111, 8078
6587, 6991, 7024, 7023, 6990, 8080, 8113, 8112, 8079
6588, 6992, 7025, 7024, 6991, 8081, 8114, 8113, 8080
6589, 6993, 7026, 7025, 6992, 8082, 8115, 8114, 8081
6590, 6994, 7027, 7026, 6993, 8083, 8116, 8115, 8082
6591, 6995, 7028, 7027, 6994, 8084, 8117, 8116, 8083
6592, 6996, 7029, 7028, 6995, 8085, 8118, 8117, 8084
6593, 6998, 7031, 7030, 6997, 8087, 8120, 8119, 8086
6594, 6999, 7032, 7031, 6998, 8088, 8121, 8120, 8087
6595, 7000, 7033, 7032, 6999, 8089, 8122, 8121, 8088
6596, 7001, 7034, 7033, 7000, 8090, 8123, 8122, 8089
6597, 7002, 7035, 7034, 7001, 8091, 8124, 8123, 8090
6598, 7003, 7036, 7035, 7002, 8092, 8125, 8124, 8091
6599, 7004, 7037, 7036, 7003, 8093, 8126, 8125, 8092
6600, 7005, 7038, 7037, 7004, 8094, 8127, 8126, 8093
6601, 7006, 7039, 7038, 7005, 8095, 8128, 8127, 8094
6602, 7007, 7040, 7039, 7006, 8096, 8129, 8128, 8095
6603, 7008, 7041, 7040, 7007, 8097, 8130, 8129, 8096
6604, 7009, 7042, 7041, 7008, 8098, 8131, 8130, 8097
6605, 7010, 7043, 7042, 7009, 8099, 8132, 8131, 8098
6606, 7011, 7044, 7043, 7010, 8100, 8133, 8132, 8099
6607, 7012, 7045, 7044, 7011, 8101, 8134, 8133, 8100
6608, 7013, 7046, 7045, 7012, 8102, 8135, 8134, 8101
6609, 7014, 7047, 7046, 7013, 8103, 8136, 8135, 8102
6610, 7015, 7048, 7047, 7014, 8104, 8137, 8136, 8103
6611, 7016, 7049, 7048, 7015, 8105, 8138, 8137, 8104
6612, 7017, 7050, 7049, 7016, 8106, 8139, 8138, 8105
6613, 7018, 7051, 7050, 7017, 8107, 8140, 8139, 8106
6614, 7019, 7052, 7051, 7018, 8108, 8141, 8140, 8107
6615, 7020, 7053, 7052, 7019, 8109, 8142, 8141, 8108
6616, 7021, 7054, 7053, 7020, 8110, 8143, 8142, 8109
6617, 7022, 7055, 7054, 7021, 8111, 8144, 8143, 8110
6618, 7023, 7056, 7055, 7022, 8112, 8145, 8144, 8111
6619, 7024, 7057, 7056, 7023, 8113, 8146, 8145, 8112
6620, 7025, 7058, 7057, 7024, 8114, 8147, 8146, 8113
6621, 7026, 7059, 7058, 7025, 8115, 8148, 8147, 8114
6622, 7027, 7060, 7059, 7026, 8116, 8149, 8148, 8115
6623, 7028, 7061, 7060, 7027, 8117, 8150, 8149, 8116
6624, 7029, 7062, 7061, 7028, 8118, 8151, 8150, 8117
6625, 7031, 7064, 7063, 7030, 8120, 8153, 8152, 8119
6626, 7032, 7065, 7064, 7031, 8121, 8154, 8153, 8120
6627, 7033, 7066, 7065, 7032, 8122, 8155, 8154, 8121
6628, 7034, 7067, 7066, 7033, 8123, 8156, 8155, 8122
6629, 7035, 7068, 7067, 7034, 8124, 8157, 8156, 8123
6630, 7036, 7069, 7068, 7035, 8125, 8158, 8157, 8124
6631, 7037, 7070, 7069, 7036, 8126, 8159, 8158, 8125
6632, 7038, 7071, 7070, 7037, 8127, 8160, 8159, 8126
6633, 7039, 7072, 7071, 7038, 8128, 8161, 8160, 8127
6634, 7040, 7073, 7072, 7039, 8129, 8162, 8161, 8128
6635, 7041, 7074, 7073, 7040, 8130, 8163, 8162, 8129
6636, 7042, 7075, 7074, 7041, 8131, 8164, 8163, 8130
6637, 7043, 7076, 7075, 7042, 8132, 8165, 8164, 8131
6638, 7044, 7077, 7076, 7043, 8133, 8166, 8165, 8132
6639, 7045, 7078, 7077, 7044, 8134, 8167, 8166, 8133
6640, 7046, 7079, 7078, 7045, 8135, 8168, 8167, 8134
6641, 7047, 7080, 7079, 7046, 8136, 8169, 8168, 8135
6642, 7048, 7081, 7080, 7047, 8137, 8170, 8169, 8136
6643, 7049, 7082, 7081, 7048, 8138, 8171, 8170, 8137
6644, 7050, 7083, 7082, 7049, 8139, 8172, 8171, 8138
6645, 7051, 7084, 7083, 7050, 8140, 8173, 8172, 8139
6646, 7052, 7085, 7084, 7051, 8141, 8174, 8173, 8140
6647, 7053, 7086, 7085, 7052, 8142, 8175, 8174, 8141
6648, 7054, 7087, 7086, 7053, 8143, 8176, 8175, 8142
6649, 7055, 7088, 7087, 7054, 8144, 8177, 8176, 8143
6650, 7056, 7089, 7088, 7055, 8145, 8178, 8177, 8144
6651, 7057, 7090, 7089, 7056, 8146, 8179, 8178, 8145
6652, 7058, 7091, 7090, 7057, 8147, 8180, 8179, 8146
6653, 7059, 7092, 7091, 7058, 8148, 8181, 8180, 8147
6654, 7060, 7093, 7092, 7059, 8149, 8182, 8181, 8148
6655, 7061, 7094, 7093, 7060, 8150, 8183, 8182, 8149
6656, 7062, 7095, 7094, 7061, 8151, 8184, 8183, 8150
6657, 7064, 7097, 7096, 7063, 8153, 8186, 8185, 8152
6658, 7065, 7098, 7097, 7064, 8154, 8187, 8186, 8153
6659, 7066, 7099, 7098, 7065, 8155, 8188, 8187, 8154
6660, 7067, 7100, 7099, 7066, 8156, 8189, 8188, 8155
6661, 7068, 7101, 7100, 7067, 8157, 8190, 8189, 8156
6662, 7069, 7102, 7101, 7068, 8158, 8191, 8190, 8157
6663, 7070, 7103, 7102, 7069, 8159, 8192, 8191, 8158
6664, 7071, 7104, 7103, 7070, 8160, 8193, 8192, 8159
6665, 7072, 7105, 7104, 7071, 8161, 8194, 8193, 8160
6666, 7073, 7106, 7105, 7072, 8162, 8195, 8194, 8161
6667, 7074, 7107, 7106, 7073, 8163, 8196, 8195, 8162
6668, 7075, 7108, 7107, 7074, 8164, 8197, 8196, 8163
6669, 7076, 7109, 7108, 7075, 8165, 8198, 8197, 8164
6670, 7077, 7110, 7109, 7076, 8166, 8199, 8198, 8165
6671, 7078, 7111, 7110, 7077, 8167, 8200, 8199, 8166
6672, 7079, 7112, 7111, 7078, 8168, 8201, 8200, 8167
6673, 7080, 7113, 7112, 7079, 8169, 8202, 8201, 8168
6674, 7081, 7114, 7113, 7080, 8170, 8203, 8202, 8169
6675, 7082, 7115, 7114, 7081, 8171, 8204, 8203, 8170
6676, 7083, 7116, 7115, 7082, 8172, 8205, 8204, 8171
6677, 7084, 7117, 7116, 7083, 8173, 8206, 8205, 8172
6678, 7085, 7118, 7117, 7084, 8174, 8207, 8206, 8173
6679, 7086, 7119, 7118, 7085, 8175, 8208, 8207, 8174
6680, 7087, 7120, 7119, 7086, 8176, 8209, 8208, 8175
6681, 7088, 7121, 7120, 7087, 8177, 8210, 8209, 8176
6682, 7089, 7122, 7121, 7088, 8178, 8211, 8210, 8177
6683, 7090, 7123, 7122, 7089, 8179, 8212, 8211, 8178
6684, 7091, 7124, 7123, 7090, 8180, 8213, 8212, 8179
6685, 7092, 7125, 7124, 7091, 8181, 8214, 8213, 8180
6686, 7093, 7126, 7125, 7092, 8182, 8215, 8214, 8181
6687, 7094, 7127, 7126, 7093, 8183, 8216, 8215, 8182
6688, 7095, 7128, 7127, 7094, 8184, 8217, 8216, 8183
6689, 7097, 7130, 7129, 7096, 8186, 8219, 8218, 8185
6690, 7098, 7131, 7130, 7097, 8187, 8220, 8219, 8186
6691, 7099, 7132, 7131, 7098, 8188, 8221, 8220, 8187
6692, 7100, 7133, 7132, 7099, 8189, 8222, 8221, 8188
6693, 7101, 7134, 7133, 7100, 8190, 8223, 8222, 8189
6694, 7102, 7135, 7134, 7101, 8191, 8224, 8223, 8190
6695, 7103, 7136, 7135, 7102, 8192, 8225, 8224, 8191
6696, 7104, 7137, 7136, 7103, 8193, 8226, 8225, 8192
6697, 7105, 7138, 7137, 7104, 8194, 8227, 8226, 8193
6698, 7106, 7139, 7138, 7105, 8195, 8228, 8227, 8194
6699, 7107, 7140, 7139, 7106, 8196, 8229, 8228, 8195
6700, 7108, 7141, 7140, 7107, 8197, 8230, 8229, 8196
6701, 7109, 7142, 7141, 7108, 8198, 8231, 8230, 8197
6702, 7110, 7143, 7142, 7109, 8199, 8232, 8231, 8198
6703, 7111, 7144, 7143, 7110, 8200, 8233, 8232, 8199
6704, 7112, 7145, 7144, 7111, 8201, 8234, 8233, 8200
6705, 7113, 7146, 7145, 7112, 8202, 8235, 8234, 8201
6706, 7114, 7147, 7146, 7113, 8203, 8236, 8235, 8202
6707, 7115, 7148, 7147, 7114, 8204, 8237, 8236, 8203
6708, 7116, 7149, 7148, 7115, 8205, 8238, 8237, 8204
6709, 7117, 7150, 7149, 7116, 8206, 8239, 8238, 8205
6710, 7118, 7151, 7150, 7117, 8207, 8240, 8239, 8206
6711, 7119, 7152, 7151, 7118, 8208, 8241, 8240, 8207
6712, 7120, 7153, 7152, 7119, 8209, 8242, 8241, 8208
6713, 7121, 7154, 7153, 7120, 8210, 8243, 8242, 8209
6714, 7122, 7155, 7154, 7121, 8211, 8244, 8243, 8210
6715, 7123, 7156, 7155, 7122, 8212, 8245, 8244, 8211
6716, 7124, 7157, 7156, 7123, 8213, 8246, 8245, 8212
6717, 7125, 7158, 7157, 7124, 8214, 8247, 8246, 8213
6718, 7126, 7159, 7158, 7125, 8215, 8248, 8247, 8214
6719, 7127, 7160, 7159, 7126, 8216, 8249, 8248, 8215
6720, 7128, 7161, 7160, 7127, 8217, 8250, 8249, 8216
6721, 7130, 7163, 7162, 7129, 8219, 8252, 8251, 8218
6722, 7131, 7164, 7163, 7130, 8220, 8253, 8252, 8219
6723, 7132, 7165, 7164, 7131, 8221, 8254, 8253, 8220
6724, 7133, 7166, 7165, 7132, 8222, 8255, 8254, 8221
6725, 7134, 7167, 7166, 7133, 8223, 8256, 8255, 8222
6726, 7135, 7168, 7167, 7134, 8224, 8257, 8256, 8223
6727, 7136, 7169, 7168, 7135, 8225, 8258, 8257, 8224
6728, 7137, 7170, 7169, 7136, 8226, 8259, 8258, 8225
6729, 7138, 7171, 7170, 7137, 8227, 8260, 8259, 8226
6730, 7139, 7172, 7171, 7138, 8228, 8261, 8260, 8227
6731, 7140, 7173, 7172, 7139, 8229, 8262, 8261, 8228
6732, 7141, 7174, 7173, 7140, 8230, 8263, 8262, 8229
6733, 7142, 7175, 7174, 7141, 8231, 8264, 8263, 8230
6734, 7143, 7176, 7175, 7142, 8232, 8265, 8264, 8231
6735, 7144, 7177, 7176, 7143, 8233, 8266, 8265, 8232
6736, 7145, 7178, 7177, 7144, 8234, 8267, 8266, 8233
6737, 7146, 7179, 7178, 7145, 8235, 8268, 8267, 8234
6738, 7147, 7180, 7179, 7146, 8236, 8269, 8268, 8235
6739, 7148, 7181, 7180, 7147, 8237, 8270, 8269, 8236
6740, 7149, 7182, 7181, 7148, 8238, 8271, 8270, 8237
6741, 7150, 7183, 7182, 7149, 8239, 8272, 8271, 8238
6742, 7151, 7184, 7183, 7150, 8240, 8273, 8272, 8239
6743, 7152, 7185, 7184, 7151, 8241, 8274, 8273, 8240
6744, 7153, 7186, 7185, 7152, 8242, 8275, 8274, 8241
6745, 7154, 7187, 7186, 7153, 8243, 8276, 8275, 8242
6746, 7155, 7188, 7187, 7154, 8244, 8277, 8276, 8243
6747, 7156, 7189, 7188, 7155, 8245, 8278, 8277, 8244
6748, 7157, 7190, 7189, 7156, 8246, 8279, 8278, 8245
6749, 7158, 7191, 7190, 7157, 8247, 8280, 8279, 8246
6750, 7159, 7192, 7191, 7158, 8248, 8281, 8280, 8247
6751, 7160, 7193, 7192, 7159, 8249, 8282, 8281, 8248
6752, 7161, 7194, 7193, 7160, 8250, 8283, 8282, 8249
6753, 7163, 7196, 7195, 7162, 8252, 8285, 8284, 8251
6754, 7164, 7197, 7196, 7163, 8253, 8286, 8285, 8252
6755, 7165, 7198, 7197, 7164, 8254, 8287, 8286, 8253
6756, 7166, 7199, 7198, 7165, 8255, 8288, 8287, 8254
6757, 7167, 7200, 7199, 7166, 8256, 8289, 8288, 8255
6758, 7168, 7201, 7200, 7167, 8257, 8290, 8289, 8256
6759, 7169, 7202, 7201, 7168, 8258, 8291, 8290, 8257
6760, 7170, 7203, 7202, 7169, 8259, 8292, 8291, 8258
6761, 7171, 7204, 7203, 7170, 8260, 8293, 8292, 8259
6762, 7172, 7205, 7204, 7171, 8261, 8294, 8293, 8260
6763, 7173, 7206, 7205, 7172, 8262, 8295, 8294, 8261
6764, 7174, 7207, 7206, 7173, 8263, 8296, 8295, 8262
6765, 7175, 7208, 7207, 7174, 8264, 8297, 8296, 8263
6766, 7176, 7209, 7208, 7175, 8265, 8298, 8297, 8264
6767, 7177, 7210, 7209, 7176, 8266, 8299, 8298, 8265
6768, 7178, 7211, 7210, 7177, 8267, 8300, 8299, 8266
6769, 7179, 7212, 7211, 7178, 8268, 8301, 8300, 8267
6770, 7180, 7213, 7212, 7179, 8269, 8302, 8301, 8268
6771, 7181, 7214, 7213, 7180, 8270, 8303, 8302, 8269
6772, 7182, 7215, 7214, 7181, 8271, 8304, 8303, 8270
6773, 7183, 7216, 7215, 7182, 8272, 8305, 8304, 8271
6774, 7184, 7217, 7216, 7183, 8273, 8306, 8305, 8272
6775, 7185, 7218, 7217, 7184, 8274, 8307, 8306, 8273
6776, 7186, 7219, 7218, 7185, 8275, 8308, 8307, 8274
6777, 7187, 7220, 7219, 7186, 8276, 8309, 8308, 8275
6778, 7188, 7221, 7220, 7187, 8277, 8310, 8309, 8276
6779, 7189, 7222, 7221, 7188, 8278, 8311, 8310, 8277
6780, 7190, 7223, 7222, 7189, 8279, 8312, 8311, 8278
6781, 7191, 7224, 7223, 7190, 8280, 8313, 8312, 8279
6782, 7192, 7225, 7224, 7191, 8281, 8314, 8313, 8280
6783, 7193, 7226, 7225, 7192, 8282, 8315, 8314, 8281
6784, 7194, 7227, 7226, 7193, 8283, 8316, 8315, 8282
6785, 7196, 7229, 7228, 7195, 8285, 8318, 8317, 8284
6786, 7197, 7230, 7229, 7196, 8286, 8319, 8318, 8285
6787, 7198, 7231, 7230, 7197, 8287, 8320, 8319, 8286
6788, 7199, 7232, 7231, 7198, 8288, 8321, 8320, 8287
6789, 7200, 7233, 7232, 7199, 8289, 8322, 8321, 8288
6790, 7201, 7234, 7233, 7200, 8290, 8323, 8322, 8289
6791, 7202, 7235, 7234, 7201, 8291, 8324, 8323, 8290
6792, 7203, 7236, 7235, 7202, 8292, 8325, 8324, 8291
6793, 7204, 7237, 7236, 7203, 8293, 8326, 8325, 8292
6794, 7205, 7238, 7237, 7204, 8294, 8327, 8326, 8293
6795, 7206, 7239, 7238, 7205, 8295, 8328, 8327, 8294
6796, 7207, 7240, 7239, 7206, 8296, 8329, 8328, 8295
6797, 7208, 7241, 7240, 7207, 8297, 8330, 8329, 8296
6798, 7209, 7242, 7241, 7208, 8298, 8331, 8330, 8297
6799, 7210, 7243, 7242, 7209, 8299, 8332, 8331, 8298
6800, 7211, 7244, 7243, 7210, 8300, 8333, 8332, 8299
6801, 7212, 7245, 7244, 7211, 8301, 8334, 8333, 8300
6802, 7213, 7246, 7245, 7212, 8302, 8335, 8334, 8301
6803, 7214, 7247, 7246, 7213, 8303, 8336, 8335, 8302
6804, 7215, 7248, 7247, 7214, 8304, 8337, 8336, 8303
6805, 7216, 7249, 7248, 7215, 8305, 8338, 8337, 8304
6806, 7217, 7250, 7249, 7216, 8306, 8339, 8338, 8305
6807, 7218, 7251, 7250, 7217, 8307, 8340, 8339, 8306
6808, 7219, 7252, 7251, 7218, 8308, 8341, 8340, 8307
6809, 7220, 7253, 7252, 7219, 8309, 8342, 8341, 8308
6810, 7221, 7254, 7253, 7220, 8310, 8343, 8342, 8309
6811, 7222, 7255, 7254, 7221, 8311, 8344, 8343, 8310
6812, 7223, 7256, 7255, 7222, 8312, 8345, 8344, 8311
6813, 7224, 7257, 7256, 7223, 8313, 8346, 8345, 8312
6814, 7225, 7258, 7257, 7224, 8314, 8347, 8346, 8313
6815, 7226, 7259, 7258, 7225, 8315, 8348, 8347, 8314
6816, 7227, 7260, 7259, 7226, 8316, 8349, 8348, 8315
6817, 7229, 7262, 7261, 7228, 8318, 8351, 8350, 8317
6818, 7230, 7263, 7262, 7229, 8319, 8352, 8351, 8318
6819, 7231, 7264, 7263, 7230, 8320, 8353, 8352, 8319
6820, 7232, 7265, 7264, 7231, 8321, 8354, 8353, 8320
6821, 7233, 7266, 7265, 7232, 8322, 8355, 8354, 8321
6822, 7234, 7267, 7266, 7233, 8323, 8356, 8355, 8322
6823, 7235, 7268, 7267, 7234, 8324, 8357, 8356, 8323
6824, 7236, 7269, 7268, 7235, 8325, 8358, 8357, 8324
6825, 7237, 7270, 7269, 7236, 8326, 8359, 8358, 8325
6826, 7238, 7271, 7270, 7237, 8327, 8360, 8359, 8326
6827, 7239, 7272, 7271, 7238, 8328, 8361, 8360, 8327
6828, 7240, 7273, 7272, 7239, 8329, 8362, 8361, 8328
6829, 7241, 7274, 7273, 7240, 8330, 8363, 8362, 8329
6830, 7242, 7275, 7274, 7241, 8331, 8364, 8363, 8330
6831, 7243, 7276, 7275, 7242, 8332, 8365, 8364, 8331
6832, 7244, 7277, 7276, 7243, 8333, 8366, 8365, 8332
6833, 7245, 7278, 7277, 7244, 8334, 8367, 8366, 8333
6834, 7246, 7279, 7278, 7245, 8335, 8368, 8367, 8334
6835, 7247, 7280, 7279, 7246, 8336, 8369, 8368, 8335
6836, 7248, 7281, 7280, 7247, 8337, 8370, 8369, 8336
6837, 7249, 7282, 7281, 7248, 8338, 8371, 8370, 8337
6838, 7250, 7283, 7282, 7249, 8339, 8372, 8371, 8338
6839, 7251, 7284, 7283, 7250, 8340, 8373, 8372, 8339
6840, 7252, 7285, 7284, 7251, 8341, 8374, 8373, 8340
6841, 7253, 7286, 7285, 7252, 8342, 8375, 8374, 8341
6842, 7254, 7287, 7286, 7253, 8343, 8376, 8375, 8342
6843, 7255, 7288, 7287, 7254, 8344, 8377, 8376, 8343
6844, 7256, 7289, 7288, 7255, 8345, 8378, 8377, 8344
6845, 7257, 7290, 7289, 7256, 8346, 8379, 8378, 8345
6846, 7258, 7291, 7290, 7257, 8347, 8380, 8379, 8346
6847, 7259, 7292, 7291, 7258, 8348, 8381, 8380, 8347
6848, 7260, 7293, 7292, 7259, 8349, 8382, 8381, 8348
6849, 7262, 7295, 7294, 7261, 8351, 8384, 8383, 8350
6850, 7263, 7296, 7295, 7262, 8352, 8385, 8384, 8351
6851, 7264, 7297, 7296, 7263, 8353, 8386, 8385, 8352
6852, 7265, 7298, 7297, 7264, 8354, 8387, 8386, 8353
6853, 7266, 7299, 7298, 7265, 8355, 8388, 8387, 8354
6854, 7267, 7300, 7299, 7266, 8356, 8389, 8388, 8355
6855, 7268, 7301, 7300, 7267, 8357, 8390, 8389, 8356
6856, 7269, 7302, 7301, 7268, 8358, 8391, 8390, 8357
6857, 7270, 7303, 7302, 7269, 8359, 8392, 8391, 8358
6858, 7271, 7304, 7303, 7270, 8360, 8393, 8392, 8359
6859, 7272, 7305, 7304, 7271, 8361, 8394, 8393, 8360
6860, 7273, 7306, 7305, 7272, 8362, 8395, 8394, 8361
6861, 7274, 7307, 7306, 7273, 8363, 8396, 8395, 8362
6862, 7275, 7308, 7307, 7274, 8364, 8397, 8396, 8363
6863, 7276, 7309, 7308, 7275, 8365, 8398, 8397, 8364
6864, 7277, 7310, 7309, 7276, 8366, 8399, 8398, 8365
6865, 7278, 7311, 7310, 7277, 8367, 8400, 8399, 8366
6866, 7279, 7312, 7311, 7278, 8368, 8401, 8400, 8367
6867, 7280, 7313, 7312, 7279, 8369, 8402, 8401, 8368
6868, 7281, 7314, 7313, 7280, 8370, 8403, 8402, 8369
6869, 7282, 7315, 7314, 7281, 8371, 8404, 8403, 8370
6870, 7283, 7316, 7315, 7282, 8372, 8405, 8404, 8371
6871, 7284, 7317, 7316, 7283, 8373, 8406, 8405, 8372
6872, 7285, 7318, 7317, 7284, 8374, 8407, 8406, 8373
6873, 7286, 7319, 7318, 7285, 8375, 8408, 8407, 8374
6874, 7287, 7320, 7319, 7286, 8376, 8409, 8408, 8375
6875, 7288, 7321, 7320, 7287, 8377, 8410, 8409, 8376
6876, 7289, 7322, 7321, 7288, 8378, 8411, 8410, 8377
6877, 7290, 7323, 7322, 7289, 8379, 8412, 8411, 8378
6878, 7291, 7324, 7323, 7290, 8380, 8413, 8412, 8379
6879, 7292, 7325, 7324, 7291, 8381, 8414, 8413, 8380
6880, 7293, 7326, 7325, 7292, 8382, 8415, 8414, 8381
6881, 7295, 7328, 7327, 7294, 8384, 8417, 8416, 8383
6882, 7296, 7329, 7328, 7295, 8385, 8418, 8417, 8384
6883, 7297, 7330, 7329, 7296, 8386, 8419, 8418, 8385
6884, 7298, 7331, 7330, 7297, 8387, 8420, 8419, 8386
6885, 7299, 7332, 7331, 7298, 8388, 8421, 8420, 8387
6886, 7300, 7333, 7332, 7299, 8389, 8422, 8421, 8388
6887, 7301, 7334, 7333, 7300, 8390, 8423, 8422, 8389
6888, 7302, 7335, 7334, 7301, 8391, 8424, 8423, 8390
6889, 7303, 7336, 7335, 7302, 8392, 8425, 8424, 8391
6890, 7304, 7337, 7336, 7303, 8393, 8426, 8425, 8392
6891, 7305, 7338, 7337, 7304, 8394, 8427, 8426, 8393
6892, 7306, 7339, 7338, 7305, 8395, 8428, 8427, 8394
6893, 7307, 7340, 7339, 7306, 8396, 8429, 8428, 8395
6894, 7308, 7341, 7340, 7307, 8397, 8430, 8429, 8396
6895, 7309, 7342, 7341, 7308, 8398, 8431, 8430, 8397
6896, 7310, 7343, 7342, 7309, 8399, 8432, 8431, 8398
6897, 7311, 7344, 7343, 7310, 8400, 8433, 8432, 8399
6898, 7312, 7345, 7344, 7311, 8401, 8434, 8433, 8400
6899, 7313, 7346, 7345, 7312, 8402, 8435, 8434, 8401
6900, 7314, 7347, 7346, 7313, 8403, 8436, 8435, 8402
6901, 7315, 7348, 7347, 7314, 8404, 8437, 8436, 8403
6902, 7316, 7349, 7348, 7315, 8405, 8438, 8437, 8404
6903, 7317, 7350, 7349, 7316, 8406, 8439, 8438, 8405
6904, 7318, 7351, 7350, 7317, 8407, 8440, 8439, 8406
6905, 7319, 7352, 7351, 7318, 8408, 8441, 8440, 8407
6906, 7320, 7353, 7352, 7319, 8409, 8442, 8441, 8408
6907, 7321, 7354, 7353, 7320, 8410, 8443, 8442, 8409
6908, 7322, 7355, 7354, 7321, 8411, 8444, 8443, 8410
6909, 7323, 7356, 7355, 7322, 8412, 8445, 8444, 8411
6910, 7324, 7357, 7356, 7323, 8413, 8446, 8445, 8412
6911, 7325, 7358, 7357, 7324, 8414, 8447, 8446, 8413
6912, 7326, 7359, 7358, 7325, 8415, 8448, 8447, 8414
6913, 7328, 7361, 7360, 7327, 8417, 8450, 8449, 8416
6914, 7329, 7362, 7361, 7328, 8418, 8451, 8450, 8417
6915, 7330, 7363, 7362, 7329, 8419, 8452, 8451, 8418
6916, 7331, 7364, 7363, 7330, 8420, 8453, 8452, 8419
6917, 7332, 7365, 7364, 7331, 8421, 8454, 8453, 8420
6918, 7333, 7366, 7365, 7332, 8422, 8455, 8454, 8421
6919, 7334, 7367, 7366, 7333, 8423, 8456, 8455, 8422
6920, 7335, 7368, 7367, 7334, 8424, 8457, 8456, 8423
6921, 7336, 7369, 7368, 7335, 8425, 8458, 8457, 8424
6922, 7337, 7370, 7369, 7336, 8426, 8459, 8458, 8425
6923, 7338, 7371, 7370, 7337, 8427, 8460, 8459, 8426
6924, 7339, 7372, 7371, 7338, 8428, 8461, 8460, 8427
6925, 7340, 7373, 7372, 7339, 8429, 8462, 8461, 8428
6926, 7341, 7374, 7373, 7340, 8430, 8463, 8462, 8429
6927, 7342, 7375, 7374, 7341, 8431, 8464, 8463, 8430
6928, 7343, 7376, 7375, 7342, 8432, 8465, 8464, 8431
6929, 7344, 7377, 7376, 7343, 8433, 8466, 8465, 8432
6930, 7345, 7378, 7377, 7344, 8434, 8467, 8466, 8433
6931, 7346, 7379, 7378, 7345, 8435, 8468, 8467, 8434
6932, 7347, 7380, 7379, 7346, 8436, 8469, 8468, 8435
6933, 7348, 7381, 7380, 7347, 8437, 8470, 8469, 8436
6934, 7349, 7382, 7381, 7348, 8438, 8471, 8470, 8437
6935, 7350, 7383, 7382, 7349, 8439, 8472, 8471, 8438
6936, 7351, 7384, 7383, 7350, 8440, 8473, 8472, 8439
6937, 7352, 7385, 7384, 7351, 8441, 8474, 8473, 8440
6938, 7353, 7386, 7385, 7352, 8442, 8475, 8474, 8441
6939, 7354, 7387, 7386, 7353, 8443, 8476, 8475, 8442
6940, 7355, 7388, 7387, 7354, 8444, 8477, 8476, 8443
6941, 7356, 7389, 7388, 7355, 8445, 8478, 8477, 8444
6942, 7357, 7390, 7389, 7356, 8446, 8479, 8478, 8445
6943, 7358, 7391, 7390, 7357, 8447, 8480, 8479, 8446
6944, 7359, 7392, 7391, 7358, 8448, 8481, 8480, 8447
6945, 7361, 7394, 7393, 7360, 8450, 8483, 8482, 8449
6946, 7362, 7395, 7394, 7361, 8451, 8484, 8483, 8450
6947, 7363, 7396, 7395, 7362, 8452, 8485, 8484, 8451
6948, 7364, 7397, 7396, 7363, 8453, 8486, 8485, 8452
6949, 7365, 7398, 7397, 7364, 8454, 8487, 8486, 8453
6950, 7366, 7399, 7398, 7365, 8455, 8488, 8487, 8454
6951, 7367, 7400, 7399, 7366, 8456, 8489, 8488, 8455
6952, 7368, 7401, 7400, 7367, 8457, 8490, 8489, 8456
6953, 7369, 7402, 7401, 7368, 8458, 8491, 8490, 8457
6954, 7370, 7403, 7402, 7369, 8459, 8492, 8491, 8458
6955, 7371, 7404, 7403, 7370, 8460, 8493, 8492, 8459
6956, 7372, 7405, 7404, 7371, 8461, 8494, 8493, 8460
6957, 7373, 7406, 7405, 7372, 8462, 8495, 8494, 8461
6958, 7374, 7407, 7406, 7373, 8463, 8496, 8495, 8462
6959, 7375, 7408, 7407, 7374, 8464, 8497, 8496, 8463
6960, 7376, 7409, 7408, 7375, 8465, 8498, 8497, 8464
6961, 7377, 7410, 7409, 7376, 8466, 8499, 8498, 8465
6962, 7378, 7411, 7410, 7377, 8467, 8500, 8499, 8466
6963, 7379, 7412, 7411, 7378, 8468, 8501, 8500, 8467
6964, 7380, 7413, 7412, 7379, 8469, 8502, 8501, 8468
6965, 7381, 7414, 7413, 7380, 8470, 8503, 8502, 8469
6966, 7382, 7415, 7414, 7381, 8471, 8504, 8503, 8470
6967, 7383, 7416, 7415, 7382, 8472, 8505, 8504, 8471
6968, 7384, 7417, 7416, 7383, 8473, 8506, 8505, 8472
6969, 7385, 7418, 7417, 7384, 8474, 8507, 8506, 8473
6970, 7386, 7419, 7418, 7385, 8475, 8508, 8507, 8474
6971, 7387, 7420, 7419, 7386, 8476, 8509, 8508, 8475
6972, 7388, 7421, 7420, 7387, 8477, 8510, 8509, 8476
6973, 7389, 7422, 7421, 7388, 8478, 8511, 8510, 8477
6974, 7390, 7423, 7422, 7389, 8479, 8512, 8511, 8478
6975, 7391, 7424, 7423, 7390, 8480, 8513, 8512, 8479
6976, 7392, 7425, 7424, 7391, 8481, 8514, 8513, 8480
6977, 7394, 7427, 7426, 7393, 8483, 8516, 8515, 8482
6978, 7395, 7428, 7427, 7394, 8484, 8517, 8516, 8483
6979, 7396, 7429, 7428, 7395, 8485, 8518, 8517, 8484
6980, 7397, 7430, 7429, 7396, 8486, 8519, 8518, 8485
6981, 7398, 7431, 7430, 7397, 8487, 8520, 8519, 8486
6982, 7399, 7432, 7431, 7398, 8488, 8521, 8520, 8487
6983, 7400, 7433, 7432, 7399, 8489, 8522, 8521, 8488
6984, 7401, 7434, 7433, 7400, 8490, 8523, 8522, 8489
6985, 7402, 7435, 7434, 7401, 8491, 8524, 8523, 8490
6986, 7403, 7436, 7435, 7402, 8492, 8525, 8524, 8491
6987, 7404, 7437, 7436, 7403, 8493, 8526, 8525, 8492
6988, 7405, 7438, 7437, 7404, 8494, 8527, 8526, 8493
6989, 7406, 7439, 7438, 7405, 8495, 8528, 8527, 8494
6990, 7407, 7440, 7439, 7406, 8496, 8529, 8528, 8495
6991, 7408, 7441, 7440, 7407, 8497, 8530, 8529, 8496
6992, 7409, 7442, 7441, 7408, 8498, 8531, 8530, 8497
6993, 7410, 7443, 7442, 7409, 8499, 8532, 8531, 8498
6994, 7411, 7444, 7443, 7410, 8500, 8533, 8532, 8499
6995, 7412, 7445, 7444, 7411, 8501, 8534, 8533, 8500
6996, 7413, 7446, 7445, 7412, 8502, 8535, 8534, 8501
6997, 7414, 7447, 7446, 7413, 8503, 8536, 8535, 8502
6998, 7415, 7448, 7447, 7414, 8504, 8537, 8536, 8503
6999, 7416, 7449, 7448, 7415, 8505, 8538, 8537, 8504
7000, 7417, 7450, 7449, 7416, 8506, 8539, 8538, 8505
7001, 7418, 7451, 7450, 7417, 8507, 8540, 8539, 8506
7002, 7419, 7452, 7451, 7418, 8508, 8541, 8540, 8507
7003, 7420, 7453, 7452, 7419, 8509, 8542, 8541, 8508
7004, 7421, 7454, 7453, 7420, 8510, 8543, 8542, 8509
7005, 7422, 7455, 7454, 7421, 8511, 8544, 8543, 8510
7006, 7423, 7456, 7455, 7422, 8512, 8545, 8544, 8511
7007, 7424, 7457, 7456, 7423, 8513, 8546, 8545, 8512
7008, 7425, 7458, 7457, 7424, 8514, 8547, 8546, 8513
7009, 7427, 7460, 7459, 7426, 8516, 8549, 8548, 8515
7010, 7428, 7461, 7460, 7427, 8517, 8550, 8549, 8516
7011, 7429, 7462, 7461, 7428, 8518, 8551, 8550, 8517
7012, 7430, 7463, 7462, 7429, 8519, 8552, 8551, 8518
7013, 7431, 7464, 7463, 7430, 8520, 8553, 8552, 8519
7014, 7432, 7465, 7464, 7431, 8521, 8554, 8553, 8520
7015, 7433, 7466, 7465, 7432, 8522, 8555, 8554, 8521
7016, 7434, 7467, 7466, 7433, 8523, 8556, 8555, 8522
7017, 7435, 7468, 7467, 7434, 8524, 8557, 8556, 8523
7018, 7436, 7469, 7468, 7435, 8525, 8558, 8557, 8524
7019, 7437, 7470, 7469, 7436, 8526, 8559, 8558, 8525
7020, 7438, 7471, 7470, 7437, 8527, 8560, 8559, 8526
7021, 7439, 7472, 7471, 7438, 8528, 8561, 8560, 8527
7022, 7440, 7473, 7472, 7439, 8529, 8562, 8561, 8528
7023, 7441, 7474, 7473, 7440, 8530, 8563, 8562, 8529
7024, 7442, 7475, 7474, 7441, 8531, 8564, 8563, 8530
7025, 7443, 7476, 7475, 7442, 8532, 8565, 8564, 8531
7026, 7444, 7477, 7476, 7443, 8533, 8566, 8565, 8532
7027, 7445, 7478, 7477, 7444, 8534, 8567, 8566, 8533
7028, 7446, 7479, 7478, 7445, 8535, 8568, 8567, 8534
7029, 7447, 7480, 7479, 7446, 8536, 8569, 8568, 8535
7030, 7448, 7481, 7480, 7447, 8537, 8570, 8569, 8536
7031, 7449, 7482, 7481, 7448, 8538, 8571, 8570, 8537
7032, 7450, 7483, 7482, 7449, 8539, 8572, 8571, 8538
7033, 7451, 7484, 7483, 7450, 8540, 8573, 8572, 8539
7034, 7452, 7485, 7484, 7451, 8541, 8574, 8573, 8540
7035, 7453, 7486, 7485, 7452, 8542, 8575, 8574, 8541
7036, 7454, 7487, 7486, 7453, 8543, 8576, 8575, 8542
7037, 7455, 7488, 7487, 7454, 8544, 8577, 8576, 8543
7038, 7456, 7489, 7488, 7455, 8545, 8578, 8577, 8544
7039, 7457, 7490, 7489, 7456, 8546, 8579, 8578, 8545
7040, 7458, 7491, 7490, 7457, 8547, 8580, 8579, 8546
7041, 7460, 7493, 7492, 7459, 8549, 8582, 8581, 8548
7042, 7461, 7494, 7493, 7460, 8550, 8583, 8582, 8549
7043, 7462, 7495, 7494, 7461, 8551, 8584, 8583, 8550
7044, 7463, 7496, 7495, 7462, 8552, 8585, 8584, 8551
7045, 7464, 7497, 7496, 7463, 8553, 8586, 8585, 8552
7046, 7465, 7498, 7497, 7464, 8554, 8587, 8586, 8553
7047, 7466, 7499, 7498, 7465, 8555, 8588, 8587, 8554
7048, 7467, 7500, 7499, 7466, 8556, 8589, 8588, 8555
7049, 7468, 7501, 7500, 7467, 8557, 8590, 8589, 8556
7050, 7469, 7502, 7501, 7468, 8558, 8591, 8590, 8557
7051, 7470, 7503, 7502, 7469, 8559, 8592, 8591, 8558
7052, 7471, 7504, 7503, 7470, 8560, 8593, 8592, 8559
7053, 7472, 7505, 7504, 7471, 8561, 8594, 8593, 8560
7054, 7473, 7506, 7505, 7472, 8562, 8595, 8594, 8561
7055, 7474, 7507, 7506, 7473, 8563, 8596, 8595, 8562
7056, 7475, 7508, 7507, 7474, 8564, 8597, 8596, 8563
7057, 7476, 7509, 7508, 7475, 8565, 8598, 8597, 8564
7058, 7477, 7510, 7509, 7476, 8566, 8599, 8598, 8565
7059, 7478, 7511, 7510, 7477, 8567, 8600, 8599, 8566
7060, 7479, 7512, 7511, 7478, 8568, 8601, 8600, 8567
7061, 7480, 7513, 7512, 7479, 8569, 8602, 8601, 8568
7062, 7481, 7514, 7513, 7480, 8570, 8603, 8602, 8569
7063, 7482, 7515, 7514, 7481, 8571, 8604, 8603, 8570
7064, 7483, 7516, 7515, 7482, 8572, 8605, 8604, 8571
7065, 7484, 7517, 7516, 7483, 8573, 8606, 8605, 8572
7066, 7485, 7518, 7517, 7484, 8574, 8607, 8606, 8573
7067, 7486, 7519, 7518, 7485, 8575, 8608, 8607, 8574
7068, 7487, 7520, 7519, 7486, 8576, 8609, 8608, 8575
7069, 7488, 7521, 7520, 7487, 8577, 8610, 8609, 8576
7070, 7489, 7522, 7521, 7488, 8578, 8611, 8610, 8577
7071, 7490, 7523, 7522, 7489, 8579, 8612, 8611, 8578
7072, 7491, 7524, 7523, 7490, 8580, 8613, 8612, 8579
7073, 7493, 7526, 7525, 7492, 8582, 8615, 8614, 8581
7074, 7494, 7527, 7526, 7493, 8583, 8616, 8615, 8582
7075, 7495, 7528, 7527, 7494, 8584, 8617, 8616, 8583
7076, 7496, 7529, 7528, 7495, 8585, 8618, 8617, 8584
7077, 7497, 7530, 7529, 7496, 8586, 8619, 8618, 8585
7078, 7498, 7531, 7530, 7497, 8587, 8620, 8619, 8586
7079, 7499, 7532, 7531, 7498, 8588, 8621, 8620, 8587
7080, 7500, 7533, 7532, 7499, 8589, 8622, 8621, 8588
7081, 7501, 7534, 7533, 7500, 8590, 8623, 8622, 8589
7082, 7502, 7535, 7534, 7501, 8591, 8624, 8623, 8590
7083, 7503, 7536, 7535, 7502, 8592, 8625, 8624, 8591
7084, 7504, 7537, 7536, 7503, 8593, 8626, 8625, 8592
7085, 7505, 7538, 7537, 7504, 8594, 8627, 8626, 8593
7086, 7506, 7539, 7538, 7505, 8595, 8628, 8627, 8594
7087, 7507, 7540, 7539, 7506, 8596, 8629, 8628, 8595
7088, 7508, 7541, 7540, 7507, 8597, 8630, 8629, 8596
7089, 7509, 7542, 7541, 7508, 8598, 8631, 8630, 8597
7090, 7510, 7543, 7542, 7509, 8599, 8632, 8631, 8598
7091, 7511, 7544, 7543, 7510, 8600, 8633, 8632, 8599
7092, 7512, 7545, 7544, 7511, 8601, 8634, 8633, 8600
7093, 7513, 7546, 7545, 7512, 8602, 8635, 8634, 8601
7094, 7514, 7547, 7546, 7513, 8603, 8636, 8635, 8602
7095, 7515, 7548, 7547, 7514, 8604, 8637, 8636, 8603
7096, 7516, 7549, 7548, 7515, 8605, 8638, 8637, 8604
7097, 7517, 7550, 7549, 7516, 8606, 8639, 8638, 8605
7098, 7518, 7551, 7550, 7517, 8607, 8640, 8639, 8606
7099, 7519, 7552, 7551, 7518, 8608, 8641, 8640, 8607
7100, 7520, 7553, 7552, 7519, 8609, 8642, 8641, 8608
7101, 7521, 7554, 7553, 7520, 8610, 8643, 8642, 8609
7102, 7522, 7555, 7554, 7521, 8611, 8644, 8643, 8610
7103, 7523, 7556, 7555, 7522, 8612, 8645, 8644, 8611
7104, 7524, 7557, 7556, 7523, 8613, 8646, 8645, 8612
7105, 7526, 7559, 7558, 7525, 8615, 8648, 8647, 8614
7106, 7527, 7560, 7559, 7526, 8616, 8649, 8648, 8615
7107, 7528, 7561, 7560, 7527, 8617, 8650, 8649, 8616
7108, 7529, 7562, 7561, 7528, 8618, 8651, 8650, 8617
7109, 7530, 7563, 7562, 7529, 8619, 8652, 8651, 8618
7110, 7531, 7564, 7563, 7530, 8620, 8653, 8652, 8619
7111, 7532, 7565, 7564, 7531, 8621, 8654, 8653, 8620
7112, 7533, 7566, 7565, 7532, 8622, 8655, 8654, 8621
7113, 7534, 7567, 7566, 7533, 8623, 8656, 8655, 8622
7114, 7535, 7568, 7567, 7534, 8624, 8657, 8656, 8623
7115, 7536, 7569, 7568, 7535, 8625, 8658, 8657, 8624
7116, 7537, 7570, 7569, 7536, 8626, 8659, 8658, 8625
7117, 7538, 7571, 7570, 7537, 8627, 8660, 8659, 8626
7118, 7539, 7572, 7571, 7538, 8628, 8661, 8660, 8627
7119, 7540, 7573, 7572, 7539, 8629, 8662, 8661, 8628
7120, 7541, 7574, 7573, 7540, 8630, 8663, 8662, 8629
7121, 7542, 7575, 7574, 7541, 8631, 8664, 8663, 8630
7122, 7543, 7576, 7575, 7542, 8632, 8665, 8664, 8631
7123, 7544, 7577, 7576, 7543, 8633, 8666, 8665, 8632
7124, 7545, 7578, 7577, 7544, 8634, 8667, 8666, 8633
7125, 7546, 7579, 7578, 7545, 8635, 8668, 8667, 8634
7126, 7547, 7580, 7579, 7546, 8636, 8669, 8668, 8635
7127, 7548, 7581, 7580, 7547, 8637, 8670, 8669, 8636
7128, 7549, 7582, 7581, 7548, 8638, 8671, 8670, 8637
7129, 7550, 7583, 7582, 7549, 8639, 8672, 8671, 8638
7130, 7551, 7584, 7583, 7550, 8640, 8673, 8672, 8639
7131, 7552, 7585, 7584, 7551, 8641, 8674, 8673, 8640
7132, 7553, 7586, 7585, 7552, 8642, 8675, 8674, 8641
7133, 7554, 7587, 7586, 7553, 8643, 8676, 8675, 8642
7134, 7555, 7588, 7587, 7554, 8644, 8677, 8676, 8643
7135, 7556, 7589, 7588, 7555, 8645, 8678, 8677, 8644
7136, 7557, 7590, 7589, 7556, 8646, 8679, 8678, 8645
7137, 7559, 7592, 7591, 7558, 8648, 8681, 8680, 8647
7138, 7560, 7593, 7592, 7559, 8649, 8682, 8681, 8648
7139, 7561, 7594, 7593, 7560, 8650, 8683, 8682, 8649
7140, 7562, 7595, 7594, 7561, 8651, 8684, 8683, 8650
7141, 7563, 7596, 7595, 7562, 8652, 8685, 8684, 8651
7142, 7564, 7597, 7596, 7563, 8653, 8686, 8685, 8652
7143, 7565, 7598, 7597, 7564, 8654, 8687, 8686, 8653
7144, 7566, 7599, 7598, 7565, 8655, 8688, 8687, 8654
7145, 7567, 7600, 7599, 7566, 8656, 8689, 8688, 8655
7146, 7568, 7601, 7600, 7567, 8657, 8690, 8689, 8656
7147, 7569, 7602, 7601, 7568, 8658, 8691, 8690, 8657
7148, 7570, 7603, 7602, 7569, 8659, 8692, 8691, 8658
7149, 7571, 7604, 7603, 7570, 8660, 8693, 8692, 8659
7150, 7572, 7605, 7604, 7571, 8661, 8694, 8693, 8660
7151, 7573, 7606, 7605, 7572, 8662, 8695, 8694, 8661
7152, 7574, 7607, 7606, 7573, 8663, 8696, 8695, 8662
7153, 7575, 7608, 7607, 7574, 8664, 8697, 8696, 8663
7154, 7576, 7609, 7608, 7575, 8665, 8698, 8697, 8664
7155, 7577, 7610, 7609, 7576, 8666, 8699, 8698, 8665
7156, 7578, 7611, 7610, 7577, 8667, 8700, 8699, 8666
7157, 7579, 7612, 7611, 7578, 8668, 8701, 8700, 8667
7158, 7580, 7613, 7612, 7579, 8669, 8702, 8701, 8668
7159, 7581, 7614, 7613, 7580, 8670, 8703, 8702, 8669
7160, 7582, 7615, 7614, 7581, 8671, 8704, 8703, 8670
7161, 7583, 7616, 7615, 7582, 8672, 8705, 8704, 8671
7162, 7584, 7617, 7616, 7583, 8673, 8706, 8705, 8672
7163, 7585, 7618, 7617, 7584, 8674, 8707, 8706, 8673
7164, 7586, 7619, 7618, 7585, 8675, 8708, 8707, 8674
7165, 7587, 7620, 7619, 7586, 8676, 8709, 8708, 8675
7166, 7588, 7621, 7620, 7587, 8677, 8710, 8709, 8676
7167, 7589, 7622, 7621, 7588, 8678, 8711, 8710, 8677
7168, 7590, 7623, 7622, 7589, 8679, 8712, 8711, 8678
7169, 7625, 7658, 7657, 7624, 8714, 8747, 8746, 8713
7170, 7626, 7659, 7658, 7625, 8715, 8748, 8747, 8714
7171, 7627, 7660, 7659, 7626, 8716, 8749, 8748, 8715
7172, 7628, 7661, 7660, 7627, 8717, 8750, 8749, 8716
7173, 7629, 7662, 7661, 7628, 8718, 8751, 8750, 8717
7174, 7630, 7663, 7662, 7629, 8719, 8752, 8751, 8718
7175, 7631, 7664, 7663, 7630, 8720, 8753, 8752, 8719
7176, 7632, 7665, 7664, 7631, 8721, 8754, 8753, 8720
7177, 7633, 7666, 7665, 7632, 8722, 8755, 8754, 8721
7178, 7634, 7667, 7666, 7633, 8723, 8756, 8755, 8722
7179, 7635, 7668, 7667, 7634, 8724, 8757, 8756, 8723
7180, 7636, 7669, 7668, 7635, 8725, 8758, 8757, 8724
7181, 7637, 7670, 7669, 7636, 8726, 8759, 8758, 8725
7182, 7638, 7671, 7670, 7637, 8727, 8760, 8759, 8726
7183, 7639, 7672, 7671, 7638, 8728, 8761, 8760, 8727
7184, 7640, 7673, 7672, 7639, 8729, 8762, 8761, 8728
7185, 7641, 7674, 7673, 7640, 8730, 8763, 8762, 8729
7186, 7642, 7675, 7674, 7641, 8731, 8764, 8763, 8730
7187, 7643, 7676, 7675, 7642, 8732, 8765, 8764, 8731
7188, 7644, 7677, 7676, 7643, 8733, 8766, 8765, 8732
7189, 7645, 7678, 7677, 7644, 8734, 8767, 8766, 8733
7190, 7646, 7679, 7678, 7645, 8735, 8768, 8767, 8734
7191, 7647, 7680, 7679, 7646, 8736, 8769, 8768, 8735
7192, 7648, 7681, 7680, 7647, 8737, 8770, 8769, 8736
7193, 7649, 7682, 7681, 7648, 8738, 8771, 8770, 8737
7194, 7650, 7683, 7682, 7649, 8739, 8772, 8771, 8738
7195, 7651, 7684, 7683, 7650, 8740, 8773, 8772, 8739
7196, 7652, 7685, 7684, 7651, 8741, 8774, 8773, 8740
7197, 7653, 7686, 7685, 7652, 8742, 8775, 8774, 8741
7198, 7654, 7687, 7686, 7653, 8743, 8776, 8775, 8742
7199, 7655, 7688, 7687, 7654, 8744, 8777, 8776, 8743
7200, 7656, 7689, 7688, 7655, 8745, 8778, 8777, 8744
7201, 7658, 7691, 7690, 7657, 8747, 8780, 8779, 8746
7202, 7659, 7692, 7691, 7658, 8748, 8781, 8780, 8747
7203, 7660, 7693, 7692, 7659, 8749, 8782, 8781, 8748
7204, 7661, 7694, 7693, 7660, 8750, 8783, 8782, 8749
7205, 7662, 7695, 7694, 7661, 8751, 8784, 8783, 8750
7206, 7663, 7696, 7695, 7662, 8752, 8785, 8784, 8751
7207, 7664, 7697, 7696, 7663, 8753, 8786, 8785, 8752
7208, 7665, 7698, 7697, 7664, 8754, 8787, 8786, 8753
7209, 7666, 7699, 7698, 7665, 8755, 8788, 8787, 8754
7210, 7667, 7700, 7699, 7666, 8756, 8789, 8788, 8755
7211, 7668, 7701, 7700, 7667, 8757, 8790, 8789, 8756
7212, 7669, 7702, 7701, 7668, 8758, 8791, 8790, 8757
7213, 7670, 7703, 7702, 7669, 8759, 8792, 8791, 8758
7214, 7671, 7704, 7703, 7670, 8760, 8793, 8792, 8759
7215, 7672, 7705, 7704, 7671, 8761, 8794, 8793, 8760
7216, 7673, 7706, 7705, 7672, 8762, 8795, 8794, 8761
7217, 7674, 7707, 7706, 7673, 8763, 8796, 8795, 8762
7218, 7675, 7708, 7707, 7674, 8764, 8797, 8796, 8763
7219, 7676, 7709, 7708, 7675, 8765, 8798, 8797, 8764
7220, 7677, 7710, 7709, 7676, 8766, 8799, 8798, 8765
7221, 7678, 7711, 7710, 7677, 8767, 8800, 8799, 8766
7222, 7679, 7712, 7711, 7678, 8768, 8801, 8800, 8767
7223, 7680, 7713, 7712, 7679, 8769, 8802, 8801, 8768
7224, 7681, 7714, 7713, 7680, 8770, 8803, 8802, 8769
7225, 7682, 7715, 7714, 7681, 8771, 8804, 8803, 8770
7226, 7683, 7716, 7715, 7682, 8772, 8805, 8804, 8771
7227, 7684, 7717, 7716, 7683, 8773, 8806, 8805, 8772
7228, 7685, 7718, 7717, 7684, 8774, 8807, 8806, 8773
7229, 7686, 7719, 7718, 7685, 8775, 8808, 8807, 8774
7230, 7687, 7720, 7719, 7686, 8776, 8809, 8808, 8775
7231, 7688, 7721, 7720, 7687, 8777, 8810, 8809, 8776
7232, 7689, 7722, 7721, 7688, 8778, 8811, 8810, 8777
7233, 7691, 7724, 7723, 7690, 8780, 8813, 8812, 8779
7234, 7692, 7725, 7724, 7691, 8781, 8814, 8813, 8780
7235, 7693, 7726, 7725, 7692, 8782, 8815, 8814, 8781
7236, 7694, 7727, 7726, 7693, 8783, 8816, 8815, 8782
7237, 7695, 7728, 7727, 7694, 8784, 8817, 8816, 8783
7238, 7696, 7729, 7728, 7695, 8785, 8818, 8817, 8784
7239, 7697, 7730, 7729, 7696, 8786, 8819, 8818, 8785
7240, 7698, 7731, 7730, 7697, 8787, 8820, 8819, 8786
7241, 7699, 7732, 7731, 7698, 8788, 8821, 8820, 8787
7242, 7700, 7733, 7732, 7699, 8789, 8822, 8821, 8788
7243, 7701, 7734, 7733, 7700, 8790, 8823, 8822, 8789
7244, 7702, 7735, 7734, 7701, 8791, 8824, 8823, 8790
7245, 7703, 7736, 7735, 7702, 8792, 8825, 8824, 8791
7246, 7704, 7737, 7736, 7703, 8793, 8826, 8825, 8792
7247, 7705, 7738, 7737, 7704, 8794, 8827, 8826, 8793
7248, 7706, 7739, 7738, 7705, 8795, 8828, 8827, 8794
7249, 7707, 7740, 7739, 7706, 8796, 8829, 8828, 8795
7250, 7708, 7741, 7740, 7707, 8797, 8830, 8829, 8796
7251, 7709, 7742, 7741, 7708, 8798, 8831, 8830, 8797
7252, 7710, 7743, 7742, 7709, 8799, 8832, 8831, 8798
7253, 7711, 7744, 7743, 7710, 8800, 8833, 8832, 8799
7254, 7712, 7745, 7744, 7711, 8801, 8834, 8833, 8800
7255, 7713, 7746, 7745, 7712, 8802, 8835, 8834, 8801
7256, 7714, 7747, 7746, 7713, 8803, 8836, 8835, 8802
7257, 7715, 7748, 7747, 7714, 8804, 8837, 8836, 8803
7258, 7716, 7749, 7748, 7715, 8805, 8838, 8837, 8804
7259, 7717, 7750, 7749, 7716, 8806, 8839, 8838, 8805
7260, 7718, 7751, 7750, 7717, 8807, 8840, 8839, 8806
7261, 7719, 7752, 7751, 7718, 8808, 8841, 8840, 8807
7262, 7720, 7753, 7752, 7719, 8809, 8842, 8841, 8808
7263, 7721, 7754, 7753, 7720, 8810, 8843, 8842, 8809
7264, 7722, 7755, 7754, 7721, 8811, 8844, 8843, 8810
7265, 7724, 7757, 7756, 7723, 8813, 8846, 8845, 8812
7266, 7725, 7758, 7757, 7724, 8814, 8847, 8846, 8813
7267, 7726, 7759, 7758, 7725, 8815, 8848, 8847, 8814
7268, 7727, 7760, 7759, 7726, 8816, 8849, 8848, 8815
7269, 7728, 7761, 7760, 7727, 8817, 8850, 8849, 8816
7270, 7729, 7762, 7761, 7728, 8818, 8851, 8850, 8817
7271, 7730, 7763, 7762, 7729, 8819, 8852, 8851, 8818
7272, 7731, 7764, 7763, 7730, 8820, 8853, 8852, 8819
7273, 7732, 7765, 7764, 7731, 8821, 8854, 8853, 8820
7274, 7733, 7766, 7765, 7732, 8822, 8855, 8854, 8821
7275, 7734, 7767, 7766, 7733, 8823, 8856, 8855, 8822
7276, 7735, 7768, 7767, 7734, 8824, 8857, 8856, 8823
7277, 7736, 7769, 7768, 7735, 8825, 8858, 8857, 8824
7278, 7737, 7770, 7769, 7736, 8826, 8859, 8858, 8825
7279, 7738, 7771, 7770, 7737, 8827, 8860, 8859, 8826
7280, 7739, 7772, 7771, 7738, 8828, 8861, 8860, 8827
7281, 7740, 7773, 7772, 7739, 8829, 8862, 8861, 8828
7282, 7741, 7774, 7773, 7740, 8830, 8863, 8862, 8829
7283, 7742, 7775, 7774, 7741, 8831, 8864, 8863, 8830
7284, 7743, 7776, 7775, 7742, 8832, 8865, 8864, 8831
7285, 7744, 7777, 7776, 7743, 8833, 8866, 8865, 8832
7286, 7745, 7778, 7777, 7744, 8834, 8867, 8866, 8833
7287, 7746, 7779, 7778, 7745, 8835, 8868, 8867, 8834
7288, 7747, 7780, 7779, 7746, 8836, 8869, 8868, 8835
7289, 7748, 7781, 7780, 7747, 8837, 8870, 8869, 8836
7290, 7749, 7782, 7781, 7748, 8838, 8871, 8870, 8837
7291, 7750, 7783, 7782, 7749, 8839, 8872, 8871, 8838
7292, 7751, 7784, 7783, 7750, 8840, 8873, 8872, 8839
7293, 7752, 7785, 7784, 7751, 8841, 8874, 8873, 8840
7294, 7753, 7786, 7785, 7752, 8842, 8875, 8874, 8841
7295, 7754, 7787, 7786, 7753, 8843, 8876, 8875, 8842
7296, 7755, 7788, 7787, 7754, 8844, 8877, 8876, 8843
7297, 7757, 7790, 7789, 7756, 8846, 8879, 8878, 8845
7298, 7758, 7791, 7790, 7757, 8847, 8880, 8879, 8846
7299, 7759, 7792, 7791, 7758, 8848, 8881, 8880, 8847
7300, 7760, 7793, 7792, 7759, 8849, 8882, 8881, 8848
7301, 7761, 7794, 7793, 7760, 8850, 8883, 8882, 8849
7302, 7762, 7795, 7794, 7761, 8851, 8884, 8883, 8850
7303, 7763, 7796, 7795, 7762, 8852, 8885, 8884, 8851
7304, 7764, 7797, 7796, 7763, 8853, 8886, 8885, 8852
7305, 7765, 7798, 7797, 7764, 8854, 8887, 8886, 8853
7306, 7766, 7799, 7798, 7765, 8855, 8888, 8887, 8854
7307, 7767, 7800, 7799, 7766, 8856, 8889, 8888, 8855
7308, 7768, 7801, 7800, 7767, 8857, 8890, 8889, 8856
7309, 7769, 7802, 7801, 7768, 8858, 8891, 8890, 8857
7310, 7770, 7803, 7802, 7769, 8859, 8892, 8891, 8858
7311, 7771, 7804, 7803, 7770, 8860, 8893, 8892, 8859
7312, 7772, 7805, 7804, 7771, 8861, 8894, 8893, 8860
7313, 7773, 7806, 7805, 7772, 8862, 8895, 8894, 8861
7314, 7774, 7807, 7806, 7773, 8863, 8896, 8895, 8862
7315, 7775, 7808, 7807, 7774, 8864, 8897, 8896, 8863
7316, 7776, 7809, 7808, 7775, 8865, 8898, 8897, 8864
7317, 7777, 7810, 7809, 7776, 8866, 8899, 8898, 8865
7318, 7778, 7811, 7810, 7777, 8867, 8900, 8899, 8866
7319, 7779, 7812, 7811, 7778, 8868, 8901, 8900, 8867
7320, 7780, 7813, 7812, 7779, 8869, 8902, 8901, 8868
7321, 7781, 7814, 7813, 7780, 8870, 8903, 8902, 8869
7322, 7782, 7815, 7814, 7781, 8871, 8904, 8903, 8870
7323, 7783, 7816, 7815, 7782, 8872, 8905, 8904, 8871
7324, 7784, 7817, 7816, 7783, 8873, 8906, 8905, 8872
7325, 7785, 7818, 7817, 7784, 8874, 8907, 8906, 8873
7326, 7786, 7819, 7818, 7785, 8875, 8908, 8907, 8874
7327, 7787, 7820, 7819, 7786, 8876, 8909, 8908, 8875
7328, 7788, 7821, 7820, 7787, 8877, 8910, 8909, 8876
7329, 7790, 7823, 7822, 7789, 8879, 8912, 8911, 8878
7330, 7791, 7824, 7823, 7790, 8880, 8913, 8912, 8879
7331, 7792, 7825, 7824, 7791, 8881, 8914, 8913, 8880
7332, 7793, 7826, 7825, 7792, 8882, 8915, 8914, 8881
7333, 7794, 7827, 7826, 7793, 8883, 8916, 8915, 8882
7334, 7795, 7828, 7827, 7794, 8884, 8917, 8916, 8883
7335, 7796, 7829, 7828, 7795, 8885, 8918, 8917, 8884
7336, 7797, 7830, 7829, 7796, 8886, 8919, 8918, 8885
7337, 7798, 7831, 7830, 7797, 8887, 8920, 8919, 8886
7338, 7799, 7832, 7831, 7798, 8888, 8921, 8920, 8887
7339, 7800, 7833, 7832, 7799, 8889, 8922, 8921, 8888
7340, 7801, 7834, 7833, 7800, 8890, 8923, 8922, 8889
7341, 7802, 7835, 7834, 7801, 8891, 8924, 8923, 8890
7342, 7803, 7836, 7835, 7802, 8892, 8925, 8924, 8891
7343, 7804, 7837, 7836, 7803, 8893, 8926, 8925, 8892
7344, 7805, 7838, 7837, 7804, 8894, 8927, 8926, 8893
7345, 7806, 7839, 7838, 7805, 8895, 8928, 8927, 8894
7346, 7807, 7840, 7839, 7806, 8896, 8929, 8928, 8895
7347, 7808, 7841, 7840, 7807, 8897, 8930, 8929, 8896
7348, 7809, 7842, 7841, 7808, 8898, 8931, 8930, 8897
7349, 7810, 7843, 7842, 7809, 8899, 8932, 8931, 8898
7350, 7811, 7844, 7843, 7810, 8900, 8933, 8932, 8899
7351, 7812, 7845, 7844, 7811, 8901, 8934, 8933, 8900
7352, 7813, 7846, 7845, 7812, 8902, 8935, 8934, 8901
7353, 7814, 7847, 7846, 7813, 8903, 8936, 8935, 8902
7354, 7815, 7848, 7847, 7814, 8904, 8937, 8936, 8903
7355, 7816, 7849, 7848, 7815, 8905, 8938, 8937, 8904
7356, 7817, 7850, 7849, 7816, 8906, 8939, 8938, 8905
7357, 7818, 7851, 7850, 7817, 8907, 8940, 8939, 8906
7358, 7819, 7852, 7851, 7818, 8908, 8941, 8940, 8907
7359, 7820, 7853, 7852, 7819, 8909, 8942, 8941, 8908
7360, 7821, 7854, 7853, 7820, 8910, 8943, 8942, 8909
7361, 7823, 7856, 7855, 7822, 8912, 8945, 8944, 8911
7362, 7824, 7857, 7856, 7823, 8913, 8946, 8945, 8912
7363, 7825, 7858, 7857, 7824, 8914, 8947, 8946, 8913
7364, 7826, 7859, 7858, 7825, 8915, 8948, 8947, 8914
7365, 7827, 7860, 7859, 7826, 8916, 8949, 8948, 8915
7366, 7828, 7861, 7860, 7827, 8917, 8950, 8949, 8916
7367, 7829, 7862, 7861, 7828, 8918, 8951, 8950, 8917
7368, 7830, 7863, 7862, 7829, 8919, 8952, 8951, 8918
7369, 7831, 7864, 7863, 7830, 8920, 8953, 8952, 8919
7370, 7832, 7865, 7864, 7831, 8921, 8954, 8953, 8920
7371, 7833, 7866, 7865, 7832, 8922, 8955, 8954, 8921
7372, 7834, 7867, 7866, 7833, 8923, 8956, 8955, 8922
7373, 7835, 7868, 7867, 7834, 8924, 8957, 8956, 8923
7374, 7836, 7869, 7868, 7835, 8925, 8958, 8957, 8924
7375, 7837, 7870, 7869, 7836, 8926, 8959, 8958, 8925
7376, 7838, 7871, 7870, 7837, 8927, 8960, 8959, 8926
7377, 7839, 7872, 7871, 7838, 8928, 8961, 8960, 8927
7378, 7840, 7873, 7872, 7839, 8929, 8962, 8961, 8928
7379, 7841, 7874, 7873, 7840, 8930, 8963, 8962, 8929
7380, 7842, 7875, 7874, 7841, 8931, 8964, 8963, 8930
7381, 7843, 7876, 7875, 7842, 8932, 8965, 8964, 8931
7382, 7844, 7877, 7876, 7843, 8933, 8966, 8965, 8932
7383, 7845, 7878, 7877, 7844, 8934, 8967, 8966, 8933
7384, 7846, 7879, 7878, 7845, 8935, 8968, 8967, 8934
7385, 7847, 7880, 7879, 7846, 8936, 8969, 8968, 8935
7386, 7848, 7881, 7880, 7847, 8937, 8970, 8969, 8936
7387, 7849, 7882, 7881, 7848, 8938, 8971, 8970, 8937
7388, 7850, 7883, 7882, 7849, 8939, 8972, 8971, 8938
7389, 7851, 7884, 7883, 7850, 8940, 8973, 8972, 8939
7390, 7852, 7885, 7884, 7851, 8941, 8974, 8973, 8940
7391, 7853, 7886, 7885, 7852, 8942, 8975, 8974, 8941
7392, 7854, 7887, 7886, 7853, 8943, 8976, 8975, 8942
7393, 7856, 7889, 7888, 7855, 8945, 8978, 8977, 8944
7394, 7857, 7890, 7889, 7856, 8946, 8979, 8978, 8945
7395, 7858, 7891, 7890, 7857, 8947, 8980, 8979, 8946
7396, 7859, 7892, 7891, 7858, 8948, 8981, 8980, 8947
7397, 7860, 7893, 7892, 7859, 8949, 8982, 8981, 8948
7398, 7861, 7894, 7893, 7860, 8950, 8983, 8982, 8949
7399, 7862, 7895, 7894, 7861, 8951, 8984, 8983, 8950
7400, 7863, 7896, 7895, 7862, 8952, 8985, 8984, 8951
7401, 7864, 7897, 7896, 7863, 8953, 8986, 8985, 8952
7402, 7865, 7898, 7897, 7864, 8954, 8987, 8986, 8953
7403, 7866, 7899, 7898, 7865, 8955, 8988, 8987, 8954
7404, 7867, 7900, 7899, 7866, 8956, 8989, 8988, 8955
7405, 7868, 7901, 7900, 7867, 8957, 8990, 8989, 8956
7406, 7869, 7902, 7901, 7868, 8958, 8991, 8990, 8957
7407, 7870, 7903, 7902, 7869, 8959, 8992, 8991, 8958
7408, 7871, 7904, 7903, 7870, 8960, 8993, 8992, 8959
7409, 7872, 7905, 7904, 7871, 8961, 8994, 8993, 8960
7410, 7873, 7906, 7905, 7872, 8962, 8995, 8994, 8961
7411, 7874, 7907, 7906, 7873, 8963, 8996, 8995, 8962
7412, 7875, 7908, 7907, 7874, 8964, 8997, 8996, 8963
7413, 7876, 7909, 7908, 7875, 8965, 8998, 8997, 8964
7414, 7877, 7910, 7909, 7876, 8966, 8999, 8998, 8965
7415, 7878, 7911, 7910, 7877, 8967, 9000, 8999, 8966
7416, 7879, 7912, 7911, 7878, 8968, 9001, 9000, 8967
7417, 7880, 7913, 7912, 7879, 8969, 9002, 9001, 8968
7418, 7881, 7914, 7913, 7880, 8970, 9003, 9002, 8969
7419, 7882, 7915, 7914, 7881, 8971, 9004, 9003, 8970
7420, 7883, 7916, 7915, 7882, 8972, 9005, 9004, 8971
7421, 7884, 7917, 7916, 7883, 8973, 9006, 9005, 8972
7422, 7885, 7918, 7917, 7884, 8974, 9007, 9006, 8973
7423, 7886, 7919, 7918, 7885, 8975, 9008, 9007, 8974
7424, 7887, 7920, 7919, 7886, 8976, 9009, 9008, 8975
7425, 7889, 7922, 7921, 7888, 8978, 9011, 9010, 8977
7426, 7890, 7923, 7922, 7889, 8979, 9012, 9011, 8978
7427, 7891, 7924, 7923, 7890, 8980, 9013, 9012, 8979
7428, 7892, 7925, 7924, 7891, 8981, 9014, 9013, 8980
7429, 7893, 7926, 7925, 7892, 8982, 9015, 9014, 8981
7430, 7894, 7927, 7926, 7893, 8983, 9016, 9015, 8982
7431, 7895, 7928, 7927, 7894, 8984, 9017, 9016, 8983
7432, 7896, 7929, 7928, 7895, 8985, 9018, 9017, 8984
7433, 7897, 7930, 7929, 7896, 8986, 9019, 9018, 8985
7434, 7898, 7931, 7930, 7897, 8987, 9020, 9019, 8986
7435, 7899, 7932, 7931, 7898, 8988, 9021, 9020, 8987
7436, 7900, 7933, 7932, 7899, 8989, 9022, 9021, 8988
7437, 7901, 7934, 7933, 7900, 8990, 9023, 9022, 8989
7438, 7902, 7935, 7934, 7901, 8991, 9024, 9023, 8990
7439, 7903, 7936, 7935, 7902, 8992, 9025, 9024, 8991
7440, 7904, 7937, 7936, 7903, 8993, 9026, 9025, 8992
7441, 7905, 7938, 7937, 7904, 8994, 9027, 9026, 8993
7442, 7906, 7939, 7938, 7905, 8995, 9028, 9027, 8994
7443, 7907, 7940, 7939, 7906, 8996, 9029, 9028, 8995
7444, 7908, 7941, 7940, 7907, 8997, 9030, 9029, 8996
7445, 7909, 7942, 7941, 7908, 8998, 9031, 9030, 8997
7446, 7910, 7943, 7942, 7909, 8999, 9032, 9031, 8998
7447, 7911, 7944, 7943, 7910, 9000, 9033, 9032, 8999
7448, 7912, 7945, 7944, 7911, 9001, 9034, 9033, 9000
7449, 7913, 7946, 7945, 7912, 9002, 9035, 9034, 9001
7450, 7914, 7947, 7946, 7913, 9003, 9036, 9035, 9002
7451, 7915, 7948, 7947, 7914, 9004, 9037, 9036, 9003
7452, 7916, 7949, 7948, 7915, 9005, 9038, 9037, 9004
7453, 7917, 7950, 7949, 7916, 9006, 9039, 9038, 9005
7454, 7918, 7951, 7950, 7917, 9007, 9040, 9039, 9006
7455, 7919, 7952, 7951, 7918, 9008, 9041, 9040, 9007
7456, 7920, 7953, 7952, 7919, 9009, 9042, 9041, 9008
7457, 7922, 7955, 7954, 7921, 9011, 9044, 9043, 9010
7458, 7923, 7956, 7955, 7922, 9012, 9045, 9044, 9011
7459, 7924, 7957, 7956, 7923, 9013, 9046, 9045, 9012
7460, 7925, 7958, 7957, 7924, 9014, 9047, 9046, 9013
7461, 7926, 7959, 7958, 7925, 9015, 9048, 9047, 9014
7462, 7927, 7960, 7959, 7926, 9016, 9049, 9048, 9015
7463, 7928, 7961, 7960, 7927, 9017, 9050, 9049, 9016
7464, 7929, 7962, 7961, 7928, 9018, 9051, 9050, 9017
7465, 7930, 7963, 7962, 7929, 9019, 9052, 9051, 9018
7466, 7931, 7964, 7963, 7930, 9020, 9053, 9052, 9019
7467, 7932, 7965, 7964, 7931, 9021, 9054, 9053, 9020
7468, 7933, 7966, 7965, 7932, 9022, 9055, 9054, 9021
7469, 7934, 7967, 7966, 7933, 9023, 9056, 9055, 9022
7470, 7935, 7968, 7967, 7934, 9024, 9057, 9056, 9023
7471, 7936, 7969, 7968, 7935, 9025, 9058, 9057, 9024
7472, 7937, 7970, 7969, 7936, 9026, 9059, 9058, 9025
7473, 7938, 7971, 7970, 7937, 9027, 9060, 9059, 9026
7474, 7939, 7972, 7971, 7938, 9028, 9061, 9060, 9027
7475, 7940, 7973, 7972, 7939, 9029, 9062, 9061, 9028
7476, 7941, 7974, 7973, 7940, 9030, 9063, 9062, 9029
7477, 7942, 7975, 7974, 7941, 9031, 9064, 9063, 9030
7478, 7943, 7976, 7975, 7942, 9032, 9065, 9064, 9031
7479, 7944, 7977, 7976, 7943, 9033, 9066, 9065, 9032
7480, 7945, 7978, 7977, 7944, 9034, 9067, 9066, 9033
7481, 7946, 7979, 7978, 7945, 9035, 9068, 9067, 9034
7482, 7947, 7980, 7979, 7946, 9036, 9069, 9068, 9035
7483, 7948, 7981, 7980, 7947, 9037, 9070, 9069, 9036
7484, 7949, 7982, 7981, 7948, 9038, 9071, 9070, 9037
7485, 7950, 7983, 7982, 7949, 9039, 9072, 9071, 9038
7486, 7951, 7984, 7983, 7950, 9040, 9073, 9072, 9039
7487, 7952, 7985, 7984, 7951, 9041, 9074, 9073, 9040
7488, 7953, 7986, 7985, 7952, 9042, 9075, 9074, 9041
7489, 7955, 7988, 7987, 7954, 9044, 9077, 9076, 9043
7490, 7956, 7989, 7988, 7955, 9045, 9078, 9077, 9044
7491, 7957, 7990, 7989, 7956, 9046, 9079, 9078, 9045
7492, 7958, 7991, 7990, 7957, 9047, 9080, 9079, 9046
7493, 7959, 7992, 7991, 7958, 9048, 9081, 9080, 9047
7494, 7960, 7993, 7992, 7959, 9049, 9082, 9081, 9048
7495, 7961, 7994, 7993, 7960, 9050, 9083, 9082, 9049
7496, 7962, 7995, 7994, 7961, 9051, 9084, 9083, 9050
7497, 7963, 7996, 7995, 7962, 9052, 9085, 9084, 9051
7498, 7964, 7997, 7996, 7963, 9053, 9086, 9085, 9052
7499, 7965, 7998, 7997, 7964, 9054, 9087, 9086, 9053
7500, 7966, 7999, 7998, 7965, 9055, 9088, 9087, 9054
7501, 7967, 8000, 7999, 7966, 9056, 9089, 9088, 9055
7502, 7968, 8001, 8000, 7967, 9057, 9090, 9089, 9056
7503, 7969, 8002, 8001, 7968, 9058, 9091, 9090, 9057
7504, 7970, 8003, 8002, 7969, 9059, 9092, 9091, 9058
7505, 7971, 8004, 8003, 7970, 9060, 9093, 9092, 9059
7506, 7972, 8005, 8004, 7971, 9061, 9094, 9093, 9060
7507, 7973, 8006, 8005, 7972, 9062, 9095, 9094, 9061
7508, 7974, 8007, 8006, 7973, 9063, 9096, 9095, 9062
7509, 7975, 8008, 8007, 7974, 9064, 9097, 9096, 9063
7510, 7976, 8009, 8008, 7975, 9065, 9098, 9097, 9064
7511, 7977, 8010, 8009, 7976, 9066, 9099, 9098, 9065
7512, 7978, 8011, 8010, 7977, 9067, 9100, 9099, 9066
7513, 7979, 8012, 8011, 7978, 9068, 9101, 9100, 9067
7514, 7980, 8013, 8012, 7979, 9069, 9102, 9101, 9068
7515, 7981, 8014, 8013, 7980, 9070, 9103, 9102, 9069
7516, 7982, 8015, 8014, 7981, 9071, 9104, 9103, 9070
7517, 7983, 8016, 8015, 7982, 9072, 9105, 9104, 9071
7518, 7984, 8017, 8016, 7983, 9073, 9106, 9105, 9072
7519, 7985, 8018, 8017, 7984, 9074, 9107, 9106, 9073
7520, 7986, 8019, 8018, 7985, 9075, 9108, 9107, 9074
7521, 7988, 8021, 8020, 7987, 9077, 9110, 9109, 9076
7522, 7989, 8022, 8021, 7988, 9078, 9111, 9110, 9077
7523, 7990, 8023, 8022, 7989, 9079, 9112, 9111, 9078
7524, 7991, 8024, 8023, 7990, 9080, 9113, 9112, 9079
7525, 7992, 8025, 8024, 7991, 9081, 9114, 9113, 9080
7526, 7993, 8026, 8025, 7992, 9082, 9115, 9114, 9081
7527, 7994, 8027, 8026, 7993, 9083, 9116, 9115, 9082
7528, 7995, 8028, 8027, 7994, 9084, 9117, 9116, 9083
7529, 7996, 8029, 8028, 7995, 9085, 9118, 9117, 9084
7530, 7997, 8030, 8029, 7996, 9086, 9119, 9118, 9085
7531, 7998, 8031, 8030, 7997, 9087, 9120, 9119, 9086
7532, 7999, 8032, 8031, 7998, 9088, 9121, 9120, 9087
7533, 8000, 8033, 8032, 7999, 9089, 9122, 9121, 9088
7534, 8001, 8034, 8033, 8000, 9090, 9123, 9122, 9089
7535, 8002, 8035, 8034, 8001, 9091, 9124, 9123, 9090
7536, 8003, 8036, 8035, 8002, 9092, 9125, 9124, 9091
7537, 8004, 8037, 8036, 8003, 9093, 9126, 9125, 9092
7538, 8005, 8038, 8037, 8004, 9094, 9127, 9126, 9093
7539, 8006, 8039, 8038, 8005, 9095, 9128, 9127, 9094
7540, 8007, 8040, 8039, 8006, 9096, 9129, 9128, 9095
7541, 8008, 8041, 8040, 8007, 9097, 9130, 9129, 9096
7542, 8009, 8042, 8041, 8008, 9098, 9131, 9130, 9097
7543, 8010, 8043, 8042, 8009, 9099, 9132, 9131, 9098
7544, 8011, 8044, 8043, 8010, 9100, 9133, 9132, 9099
7545, 8012, 8045, 8044, 8011, 9101, 9134, 9133, 9100
7546, 8013, 8046, 8045, 8012, 9102, 9135, 9134, 9101
7547, 8014, 8047, 8046, 8013, 9103, 9136, 9135, 9102
7548, 8015, 8048, 8047, 8014, 9104, 9137, 9136, 9103
7549, 8016, 8049, 8048, 8015, 9105, 9138, 9137, 9104
7550, 8017, 8050, 8049, 8016, 9106, 9139, 9138, 9105
7551, 8018, 8051, 8050, 8017, 9107, 9140, 9139, 9106
7552, 8019, 8052, 8051, 8018, 9108, 9141, 9140, 9107
7553, 8021, 8054, 8053, 8020, 9110, 9143, 9142, 9109
7554, 8022, 8055, 8054, 8021, 9111, 9144, 9143, 9110
7555, 8023, 8056, 8055, 8022, 9112, 9145, 9144, 9111
7556, 8024, 8057, 8056, 8023, 9113, 9146, 9145, 9112
7557, 8025, 8058, 8057, 8024, 9114, 9147, 9146, 9113
7558, 8026, 8059, 8058, 8025, 9115, 9148, 9147, 9114
7559, 8027, 8060, 8059, 8026, 9116, 9149, 9148, 9115
7560, 8028, 8061, 8060, 8027, 9117, 9150, 9149, 9116
7561, 8029, 8062, 8061, 8028, 9118, 9151, 9150, 9117
7562, 8030, 8063, 8062, 8029, 9119, 9152, 9151, 9118
7563, 8031, 8064, 8063, 8030, 9120, 9153, 9152, 9119
7564, 8032, 8065, 8064, 8031, 9121, 9154, 9153, 9120
7565, 8033, 8066, 8065, 8032, 9122, 9155, 9154, 9121
7566, 8034, 8067, 8066, 8033, 9123, 9156, 9155, 9122
7567, 8035, 8068, 8067, 8034, 9124, 9157, 9156, 9123
7568, 8036, 8069, 8068, 8035, 9125, 9158, 9157, 9124
7569, 8037, 8070, 8069, 8036, 9126, 9159, 9158, 9125
7570, 8038, 8071, 8070, 8037, 9127, 9160, 9159, 9126
7571, 8039, 8072, 8071, 8038, 9128, 9161, 9160, 9127
7572, 8040, 8073, 8072, 8039, 9129, 9162, 9161, 9128
7573, 8041, 8074, 8073, 8040, 9130, 9163, 9162, 9129
7574, 8042, 8075, 8074, 8041, 9131, 9164, 9163, 9130
7575, 8043, 8076, 8075, 8042, 9132, 9165, 9164, 9131
7576, 8044, 8077, 8076, 8043, 9133, 9166, 9165, 9132
7577, 8045, 8078, 8077, 8044, 9134, 9167, 9166, 9133
7578, 8046, 8079, 8078, 8045, 9135, 9168, 9167, 9134
7579, 8047, 8080, 8079, 8046, 9136, 9169, 9168, 9135
7580, 8048, 8081, 8080, 8047, 9137, 9170, 9169, 9136
7581, 8049, 8082, 8081, 8048, 9138, 9171, 9170, 9137
7582, 8050, 8083, 8082, 8049, 9139, 9172, 9171, 9138
7583, 8051, 8084, 8083, 8050, 9140, 9173, 9172, 9139
7584, 8052, 8085, 8084, 8051, 9141, 9174, 9173, 9140
7585, 8054, 8087, 8086, 8053, 9143, 9176, 9175, 9142
7586, 8055, 8088, 8087, 8054, 9144, 9177, 9176, 9143
7587, 8056, 8089, 8088, 8055, 9145, 9178, 9177, 9144
7588, 8057, 8090, 8089, 8056, 9146, 9179, 9178, 9145
7589, 8058, 8091, 8090, 8057, 9147, 9180, 9179, 9146
7590, 8059, 8092, 8091, 8058, 9148, 9181, 9180, 9147
7591, 8060, 8093, 8092, 8059, 9149, 9182, 9181, 9148
7592, 8061, 8094, 8093, 8060, 9150, 9183, 9182, 9149
7593, 8062, 8095, 8094, 8061, 9151, 9184, 9183, 9150
7594, 8063, 8096, 8095, 8062, 9152, 9185, 9184, 9151
7595, 8064, 8097, 8096, 8063, 9153, 9186, 9185, 9152
7596, 8065, 8098, 8097, 8064, 9154, 9187, 9186, 9153
7597, 8066, 8099, 8098, 8065, 9155, 9188, 9187, 9154
7598, 8067, 8100, 8099, 8066, 9156, 9189, 9188, 9155
7599, 8068, 8101, 8100, 8067, 9157, 9190, 9189, 9156
7600, 8069, 8102, 8101, 8068, 9158, 9191, 9190, 9157
7601, 8070, 8103, 8102, 8069, 9159, 9192, 9191, 9158
7602, 8071, 8104, 8103, 8070, 9160, 9193, 9192, 9159
7603, 8072, 8105, 8104, 8071, 9161, 9194, 9193, 9160
7604, 8073, 8106, 8105, 8072, 9162, 9195, 9194, 9161
7605, 8074, 8107, 8106, 8073, 9163, 9196, 9195, 9162
7606, 8075, 8108, 8107, 8074, 9164, 9197, 9196, 9163
7607, 8076, 8109, 8108, 8075, 9165, 9198, 9197, 9164
7608, 8077, 8110, 8109, 8076, 9166, 9199, 9198, 9165
7609, 8078, 8111, 8110, 8077, 9167, 9200, 9199, 9166
7610, 8079, 8112, 8111, 8078, 9168, 9201, 9200, 9167
7611, 8080, 8113, 8112, 8079, 9169, 9202, 9201, 9168
7612, 8081, 8114, 8113, 8080, 9170, 9203, 9202, 9169
7613, 8082, 8115, 8114, 8081, 9171, 9204, 9203, 9170
7614, 8083, 8116, 8115, 8082, 9172, 9205, 9204, 9171
7615, 8084, 8117, 8116, 8083, 9173, 9206, 9205, 9172
7616, 8085, 8118, 8117, 8084, 9174, 9207, 9206, 9173
7617, 8087, 8120, 8119, 8086, 9176, 9209, 9208, 9175
7618, 8088, 8121, 8120, 8087, 9177, 9210, 9209, 9176
7619, 8089, 8122, 8121, 8088, 9178, 9211, 9210, 9177
7620, 8090, 8123, 8122, 8089, 9179, 9212, 9211, 9178
7621, 8091, 8124, 8123, 8090, 9180, 9213, 9212, 9179
7622, 8092, 8125, 8124, 8091, 9181, 9214, 9213, 9180
7623, 8093, 8126, 8125, 8092, 9182, 9215, 9214, 9181
7624, 8094, 8127, 8126, 8093, 9183, 9216, 9215, 9182
7625, 8095, 8128, 8127, 8094, 9184, 9217, 9216, 9183
7626, 8096, 8129, 8128, 8095, 9185, 9218, 9217, 9184
7627, 8097, 8130, 8129, 8096, 9186, 9219, 9218, 9185
7628, 8098, 8131, 8130, 8097, 9187, 9220, 9219, 9186
7629, 8099, 8132, 8131, 8098, 9188, 9221, 9220, 9187
7630, 8100, 8133, 8132, 8099, 9189, 9222, 9221, 9188
7631, 8101, 8134, 8133, 8100, 9190, 9223, 9222, 9189
7632, 8102, 8135, 8134, 8101, 9191, 9224, 9223, 9190
7633, 8103, 8136, 8135, 8102, 9192, 9225, 9224, 9191
7634, 8104, 8137, 8136, 8103, 9193, 9226, 9225, 9192
7635, 8105, 8138, 8137, 8104, 9194, 9227, 9226, 9193
7636, 8106, 8139, 8138, 8105, 9195, 9228, 9227, 9194
7637, 8107, 8140, 8139, 8106, 9196, 9229, 9228, 9195
7638, 8108, 8141, 8140, 8107, 9197, 9230, 9229, 9196
7639, 8109, 8142, 8141, 8108, 9198, 9231, 9230, 9197
7640, 8110, 8143, 8142, 8109, 9199, 9232, 9231, 9198
7641, 8111, 8144, 8143, 8110, 9200, 9233, 9232, 9199
7642, 8112, 8145, 8144, 8111, 9201, 9234, 9233, 9200
7643, 8113, 8146, 8145, 8112, 9202, 9235, 9234, 9201
7644, 8114, 8147, 8146, 8113, 9203, 9236, 9235, 9202
7645, 8115, 8148, 8147, 8114, 9204, 9237, 9236, 9203
7646, 8116, 8149, 8148, 8115, 9205, 9238, 9237, 9204
7647, 8117, 8150, 8149, 8116, 9206, 9239, 9238, 9205
7648, 8118, 8151, 8150, 8117, 9207, 9240, 9239, 9206
7649, 8120, 8153, 8152, 8119, 9209, 9242, 9241, 9208
7650, 8121, 8154, 8153, 8120, 9210, 9243, 9242, 9209
7651, 8122, 8155, 8154, 8121, 9211, 9244, 9243, 9210
7652, 8123, 8156, 8155, 8122, 9212, 9245, 9244, 9211
7653, 8124, 8157, 8156, 8123, 9213, 9246, 9245, 9212
7654, 8125, 8158, 8157, 8124, 9214, 9247, 9246, 9213
7655, 8126, 8159, 8158, 8125, 9215, 9248, 9247, 9214
7656, 8127, 8160, 8159, 8126, 9216, 9249, 9248, 9215
7657, 8128, 8161, 8160, 8127, 9217, 9250, 9249, 9216
7658, 8129, 8162, 8161, 8128, 9218, 9251, 9250, 9217
7659, 8130, 8163, 8162, 8129, 9219, 9252, 9251, 9218
7660, 8131, 8164, 8163, 8130, 9220, 9253, 9252, 9219
7661, 8132, 8165, 8164, 8131, 9221, 9254, 9253, 9220
7662, 8133, 8166, 8165, 8132, 9222, 9255, 9254, 9221
7663, 8134, 8167, 8166, 8133, 9223, 9256, 9255, 9222
7664, 8135, 8168, 8167, 8134, 9224, 9257, 9256, 9223
7665, 8136, 8169, 8168, 8135, 9225, 9258, 9257, 9224
7666, 8137, 8170, 8169, 8136, 9226, 9259, 9258, 9225
7667, 8138, 8171, 8170, 8137, 9227, 9260, 9259, 9226
7668, 8139, 8172, 8171, 8138, 9228, 9261, 9260, 9227
7669, 8140, 8173, 8172, 8139, 9229, 9262, 9261, 9228
7670, 8141, 8174, 8173, 8140, 9230, 9263, 9262, 9229
7671, 8142, 8175, 8174, 8141, 9231, 9264, 9263, 9230
7672, 8143, 8176, 8175, 8142, 9232, 9265, 9264, 9231
7673, 8144, 8177, 8176, 8143, 9233, 9266, 9265, 9232
7674, 8145, 8178, 8177, 8144, 9234, 9267, 9266, 9233
7675, 8146, 8179, 8178, 8145, 9235, 9268, 9267, 9234
7676, 8147, 8180, 8179, 8146, 9236, 9269, 9268, 9235
7677, 8148, 8181, 8180, 8147, 9237, 9270, 9269, 9236
7678, 8149, 8182, 8181, 8148, 9238, 9271, 9270, 9237
7679, 8150, 8183, 8182, 8149, 9239, 9272, 9271, 9238
7680, 8151, 8184, 8183, 8150, 9240, 9273, 9272, 9239
7681, 8153, 8186, 8185, 8152, 9242, 9275, 9274, 9241
7682, 8154, 8187, 8186, 8153, 9243, 9276, 9275, 9242
7683, 8155, 8188, 8187, 8154, 9244, 9277, 9276, 9243
7684, 8156, 8189, 8188, 8155, 9245, 9278, 9277, 9244
7685, 8157, 8190, 8189, 8156, 9246, 9279, 9278, 9245
7686, 8158, 8191, 8190, 8157, 9247, 9280, 9279, 9246
7687, 8159, 8192, 8191, 8158, 9248, 9281, 9280, 9247
7688, 8160, 8193, 8192, 8159, 9249, 9282, 9281, 9248
7689, 8161, 8194, 8193, 8160, 9250, 9283, 9282, 9249
7690, 8162, 8195, 8194, 8161, 9251, 9284, 9283, 9250
7691, 8163, 8196, 8195, 8162, 9252, 9285, 9284, 9251
7692, 8164, 8197, 8196, 8163, 9253, 9286, 9285, 9252
7693, 8165, 8198, 8197, 8164, 9254, 9287, 9286, 9253
7694, 8166, 8199, 8198, 8165, 9255, 9288, 9287, 9254
7695, 8167, 8200, 8199, 8166, 9256, 9289, 9288, 9255
7696, 8168, 8201, 8200, 8167, 9257, 9290, 9289, 9256
7697, 8169, 8202, 8201, 8168, 9258, 9291, 9290, 9257
7698, 8170, 8203, 8202, 8169, 9259, 9292, 9291, 9258
7699, 8171, 8204, 8203, 8170, 9260, 9293, 9292, 9259
7700, 8172, 8205, 8204, 8171, 9261, 9294, 9293, 9260
7701, 8173, 8206, 8205, 8172, 9262, 9295, 9294, 9261
7702, 8174, 8207, 8206, 8173, 9263, 9296, 9295, 9262
7703, 8175, 8208, 8207, 8174, 9264, 9297, 9296, 9263
7704, 8176, 8209, 8208, 8175, 9265, 9298, 9297, 9264
7705, 8177, 8210, 8209, 8176, 9266, 9299, 9298, 9265
7706, 8178, 8211, 8210, 8177, 9267, 9300, 9299, 9266
7707, 8179, 8212, 8211, 8178, 9268, 9301, 9300, 9267
7708, 8180, 8213, 8212, 8179, 9269, 9302, 9301, 9268
7709, 8181, 8214, 8213, 8180, 9270, 9303, 9302, 9269
7710, 8182, 8215, 8214, 8181, 9271, 9304, 9303, 9270
7711, 8183, 8216, 8215, 8182, 9272, 9305, 9304, 9271
7712, 8184, 8217, 8216, 8183, 9273, 9306, 9305, 9272
7713, 8186, 8219, 8218, 8185, 9275, 9308, 9307, 9274
7714, 8187, 8220, 8219, 8186, 9276, 9309, 9308, 9275
7715, 8188, 8221, 8220, 8187, 9277, 9310, 9309, 9276
7716, 8189, 8222, 8221, 8188, 9278, 9311, 9310, 9277
7717, 8190, 8223, 8222, 8189, 9279, 9312, 9311, 9278
7718, 8191, 8224, 8223, 8190, 9280, 9313, 9312, 9279
7719, 8192, 8225, 8224, 8191, 9281, 9314, 9313, 9280
7720, 8193, 8226, 8225, 8192, 9282, 9315, 9314, 9281
7721, 8194, 8227, 8226, 8193, 9283, 9316, 9315, 9282
7722, 8195, 8228, 8227, 8194, 9284, 9317, 9316, 9283
7723, 8196, 8229, 8228, 8195, 9285, 9318, 9317, 9284
7724, 8197, 8230, 8229, 8196, 9286, 9319, 9318, 9285
7725, 8198, 8231, 8230, 8197, 9287, 9320, 9319, 9286
7726, 8199, 8232, 8231, 8198, 9288, 9321, 9320, 9287
7727, 8200, 8233, 8232, 8199, 9289, 9322, 9321, 9288
7728, 8201, 8234, 8233, 8200, 9290, 9323, 9322, 9289
7729, 8202, 8235, 8234, 8201, 9291, 9324, 9323, 9290
7730, 8203, 8236, 8235, 8202, 9292, 9325, 9324, 9291
7731, 8204, 8237, 8236, 8203, 9293, 9326, 9325, 9292
7732, 8205, 8238, 8237, 8204, 9294, 9327, 9326, 9293
7733, 8206, 8239, 8238, 8205, 9295, 9328, 9327, 9294
7734, 8207, 8240, 8239, 8206, 9296, 9329, 9328, 9295
7735, 8208, 8241, 8240, 8207, 9297, 9330, 9329, 9296
7736, 8209, 8242, 8241, 8208, 9298, 9331, 9330, 9297
7737, 8210, 8243, 8242, 8209, 9299, 9332, 9331, 9298
7738, 8211, 8244, 8243, 8210, 9300, 9333, 9332, 9299
7739, 8212, 8245, 8244, 8211, 9301, 9334, 9333, 9300
7740, 8213, 8246, 8245, 8212, 9302, 9335, 9334, 9301
7741, 8214, 8247, 8246, 8213, 9303, 9336, 9335, 9302
7742, 8215, 8248, 8247, 8214, 9304, 9337, 9336, 9303
7743, 8216, 8249, 8248, 8215, 9305, 9338, 9337, 9304
7744, 8217, 8250, 8249, 8216, 9306, 9339, 9338, 9305
7745, 8219, 8252, 8251, 8218, 9308, 9341, 9340, 9307
7746, 8220, 8253, 8252, 8219, 9309, 9342, 9341, 9308
7747, 8221, 8254, 8253, 8220, 9310, 9343, 9342, 9309
7748, 8222, 8255, 8254, 8221, 9311, 9344, 9343, 9310
7749, 8223, 8256, 8255, 8222, 9312, 9345, 9344, 9311
7750, 8224, 8257, 8256, 8223, 9313, 9346, 9345, 9312
7751, 8225, 8258, 8257, 8224, 9314, 9347, 9346, 9313
7752, 8226, 8259, 8258, 8225, 9315, 9348, 9347, 9314
7753, 8227, 8260, 8259, 8226, 9316, 9349, 9348, 9315
7754, 8228, 8261, 8260, 8227, 9317, 9350, 9349, 9316
7755, 8229, 8262, 8261, 8228, 9318, 9351, 9350, 9317
7756, 8230, 8263, 8262, 8229, 9319, 9352, 9351, 9318
7757, 8231, 8264, 8263, 8230, 9320, 9353, 9352, 9319
7758, 8232, 8265, 8264, 8231, 9321, 9354, 9353, 9320
7759, 8233, 8266, 8265, 8232, 9322, 9355, 9354, 9321
7760, 8234, 8267, 8266, 8233, 9323, 9356, 9355, 9322
7761, 8235, 8268, 8267, 8234, 9324, 9357, 9356, 9323
7762, 8236, 8269, 8268, 8235, 9325, 9358, 9357, 9324
7763, 8237, 8270, 8269, 8236, 9326, 9359, 9358, 9325
7764, 8238, 8271, 8270, 8237, 9327, 9360, 9359, 9326
7765, 8239, 8272, 8271, 8238, 9328, 9361, 9360, 9327
7766, 8240, 8273, 8272, 8239, 9329, 9362, 9361, 9328
7767, 8241, 8274, 8273, 8240, 9330, 9363, 9362, 9329
7768, 8242, 8275, 8274, 8241, 9331, 9364, 9363, 9330
7769, 8243, 8276, 8275, 8242, 9332, 9365, 9364, 9331
7770, 8244, 8277, 8276, 8243, 9333, 9366, 9365, 9332
7771, 8245, 8278, 8277, 8244, 9334, 9367, 9366, 9333
7772, 8246, 8279, 8278, 8245, 9335, 9368, 9367, 9334
7773, 8247, 8280, 8279, 8246, 9336, 9369, 9368, 9335
7774, 8248, 8281, 8280, 8247, 9337, 9370, 9369, 9336
7775, 8249, 8282, 8281, 8248, 9338, 9371, 9370, 9337
7776, 8250, 8283, 8282, 8249, 9339, 9372, 9371, 9338
7777, 8252, 8285, 8284, 8251, 9341, 9374, 9373, 9340
7778, 8253, 8286, 8285, 8252, 9342, 9375, 9374, 9341
7779, 8254, 8287, 8286, 8253, 9343, 9376, 9375, 9342
7780, 8255, 8288, 8287, 8254, 9344, 9377, 9376, 9343
7781, 8256, 8289, 8288, 8255, 9345, 9378, 9377, 9344
7782, 8257, 8290, 8289, 8256, 9346, 9379, 9378, 9345
7783, 8258, 8291, 8290, 8257, 9347, 9380, 9379, 9346
7784, 8259, 8292, 8291, 8258, 9348, 9381, 9380, 9347
7785, 8260, 8293, 8292, 8259, 9349, 9382, 9381, 9348
7786, 8261, 8294, 8293, 8260, 9350, 9383, 9382, 9349
7787, 8262, 8295, 8294, 8261, 9351, 9384, 9383, 9350
7788, 8263, 8296, 8295, 8262, 9352, 9385, 9384, 9351
7789, 8264, 8297, 8296, 8263, 9353, 9386, 9385, 9352
7790, 8265, 8298, 8297, 8264, 9354, 9387, 9386, 9353
7791, 8266, 8299, 8298, 8265, 9355, 9388, 9387, 9354
7792, 8267, 8300, 8299, 8266, 9356, 9389, 9388, 9355
7793, 8268, 8301, 8300, 8267, 9357, 9390, 9389, 9356
7794, 8269, 8302, 8301, 8268, 9358, 9391, 9390, 9357
7795, 8270, 8303, 8302, 8269, 9359, 9392, 9391, 9358
7796, 8271, 8304, 8303, 8270, 9360, 9393, 9392, 9359
7797, 8272, 8305, 8304, 8271, 9361, 9394, 9393, 9360
7798, 8273, 8306, 8305, 8272, 9362, 9395, 9394, 9361
7799, 8274, 8307, 8306, 8273, 9363, 9396, 9395, 9362
7800, 8275, 8308, 8307, 8274, 9364, 9397, 9396, 9363
7801, 8276, 8309, 8308, 8275, 9365, 9398, 9397, 9364
7802, 8277, 8310, 8309, 8276, 9366, 9399, 9398, 9365
7803, 8278, 8311, 8310, 8277, 9367, 9400, 9399, 9366
7804, 8279, 8312, 8311, 8278, 9368, 9401, 9400, 9367
7805, 8280, 8313, 8312, 8279, 9369, 9402, 9401, 9368
7806, 8281, 8314, 8313, 8280, 9370, 9403, 9402, 9369
7807, 8282, 8315, 8314, 8281, 9371, 9404, 9403, 9370
7808, 8283, 8316, 8315, 8282, 9372, 9405, 9404, 9371
7809, 8285, 8318, 8317, 8284, 9374, 9407, 9406, 9373
7810, 8286, 8319, 8318, 8285, 9375, 9408, 9407, 9374
7811, 8287, 8320, 8319, 8286, 9376, 9409, 9408, 9375
7812, 8288, 8321, 8320, 8287, 9377, 9410, 9409, 9376
7813, 8289, 8322, 8321, 8288, 9378, 9411, 9410, 9377
7814, 8290, 8323, 8322, 8289, 9379, 9412, 9411, 9378
7815, 8291, 8324, 8323, 8290, 9380, 9413, 9412, 9379
7816, 8292, 8325, 8324, 8291, 9381, 9414, 9413, 9380
7817, 8293, 8326, 8325, 8292, 9382, 9415, 9414, 9381
7818, 8294, 8327, 8326, 8293, 9383, 9416, 9415, 9382
7819, 8295, 8328, 8327, 8294, 9384, 9417, 9416, 9383
7820, 8296, 8329, 8328, 8295, 9385, 9418, 9417, 9384
7821, 8297, 8330, 8329, 8296, 9386, 9419, 9418, 9385
7822, 8298, 8331, 8330, 8297, 9387, 9420, 9419, 9386
7823, 8299, 8332, 8331, 8298, 9388, 9421, 9420, 9387
7824, 8300, 8333, 8332, 8299, 9389, 9422, 9421, 9388
7825, 8301, 8334, 8333, 8300, 9390, 9423, 9422, 9389
7826, 8302, 8335, 8334, 8301, 9391, 9424, 9423, 9390
7827, 8303, 8336, 8335, 8302, 9392, 9425, 9424, 9391
7828, 8304, 8337, 8336, 8303, 9393, 9426, 9425, 9392
7829, 8305, 8338, 8337, 8304, 9394, 9427, 9426, 9393
7830, 8306, 8339, 8338, 8305, 9395, 9428, 9427, 9394
7831, 8307, 8340, 8339, 8306, 9396, 9429, 9428, 9395
7832, 8308, 8341, 8340, 8307, 9397, 9430, 9429, 9396
7833, 8309, 8342, 8341, 8308, 9398, 9431, 9430, 9397
7834, 8310, 8343, 8342, 8309, 9399, 9432, 9431, 9398
7835, 8311, 8344, 8343, 8310, 9400, 9433, 9432, 9399
7836, 8312, 8345, 8344, 8311, 9401, 9434, 9433, 9400
7837, 8313, 8346, 8345, 8312, 9402, 9435, 9434, 9401
7838, 8314, 8347, 8346, 8313, 9403, 9436, 9435, 9402
7839, 8315, 8348, 8347, 8314, 9404, 9437, 9436, 9403
7840, 8316, 8349, 8348, 8315, 9405, 9438, 9437, 9404
7841, 8318, 8351, 8350, 8317, 9407, 9440, 9439, 9406
7842, 8319, 8352, 8351, 8318, 9408, 9441, 9440, 9407
7843, 8320, 8353, 8352, 8319, 9409, 9442, 9441, 9408
7844, 8321, 8354, 8353, 8320, 9410, 9443, 9442, 9409
7845, 8322, 8355, 8354, 8321, 9411, 9444, 9443, 9410
7846, 8323, 8356, 8355, 8322, 9412, 9445, 9444, 9411
7847, 8324, 8357, 8356, 8323, 9413, 9446, 9445, 9412
7848, 8325, 8358, 8357, 8324, 9414, 9447, 9446, 9413
7849, 8326, 8359, 8358, 8325, 9415, 9448, 9447, 9414
7850, 8327, 8360, 8359, 8326, 9416, 9449, 9448, 9415
7851, 8328, 8361, 8360, 8327, 9417, 9450, 9449, 9416
7852, 8329, 8362, 8361, 8328, 9418, 9451, 9450, 9417
7853, 8330, 8363, 8362, 8329, 9419, 9452, 9451, 9418
7854, 8331, 8364, 8363, 8330, 9420, 9453, 9452, 9419
7855, 8332, 8365, 8364, 8331, 9421, 9454, 9453, 9420
7856, 8333, 8366, 8365, 8332, 9422, 9455, 9454, 9421
7857, 8334, 8367, 8366, 8333, 9423, 9456, 9455, 9422
7858, 8335, 8368, 8367, 8334, 9424, 9457, 9456, 9423
7859, 8336, 8369, 8368, 8335, 9425, 9458, 9457, 9424
7860, 8337, 8370, 8369, 8336, 9426, 9459, 9458, 9425
7861, 8338, 8371, 8370, 8337, 9427, 9460, 9459, 9426
7862, 8339, 8372, 8371, 8338, 9428, 9461, 9460, 9427
7863, 8340, 8373, 8372, 8339, 9429, 9462, 9461, 9428
7864, 8341, 8374, 8373, 8340, 9430, 9463, 9462, 9429
7865, 8342, 8375, 8374, 8341, 9431, 9464, 9463, 9430
7866, 8343, 8376, 8375, 8342, 9432, 9465, 9464, 9431
7867, 8344, 8377, 8376, 8343, 9433, 9466, 9465, 9432
7868, 8345, 8378, 8377, 8344, 9434, 9467, 9466, 9433
7869, 8346, 8379, 8378, 8345, 9435, 9468, 9467, 9434
7870, 8347, 8380, 8379, 8346, 9436, 9469, 9468, 9435
7871, 8348, 8381, 8380, 8347, 9437, 9470, 9469, 9436
7872, 8349, 8382, 8381, 8348, 9438, 9471, 9470, 9437
7873, 8351, 8384, 8383, 8350, 9440, 9473, 9472, 9439
7874, 8352, 8385, 8384, 8351, 9441, 9474, 9473, 9440
7875, 8353, 8386, 8385, 8352, 9442, 9475, 9474, 9441
7876, 8354, 8387, 8386, 8353, 9443, 9476, 9475, 9442
7877, 8355, 8388, 8387, 8354, 9444, 9477, 9476, 9443
7878, 8356, 8389, 8388, 8355, 9445, 9478, 9477, 9444
7879, 8357, 8390, 8389, 8356, 9446, 9479, 9478, 9445
7880, 8358, 8391, 8390, 8357, 9447, 9480, 9479, 9446
7881, 8359, 8392, 8391, 8358, 9448, 9481, 9480, 9447
7882, 8360, 8393, 8392, 8359, 9449, 9482, 9481, 9448
7883, 8361, 8394, 8393, 8360, 9450, 9483, 9482, 9449
7884, 8362, 8395, 8394, 8361, 9451, 9484, 9483, 9450
7885, 8363, 8396, 8395, 8362, 9452, 9485, 9484, 9451
7886, 8364, 8397, 8396, 8363, 9453, 9486, 9485, 9452
7887, 8365, 8398, 8397, 8364, 9454, 9487, 9486, 9453
7888, 8366, 8399, 8398, 8365, 9455, 9488, 9487, 9454
7889, 8367, 8400, 8399, 8366, 9456, 9489, 9488, 9455
7890, 8368, 8401, 8400, 8367, 9457, 9490, 9489, 9456
7891, 8369, 8402, 8401, 8368, 9458, 9491, 9490, 9457
7892, 8370, 8403, 8402, 8369, 9459, 9492, 9491, 9458
7893, 8371, 8404, 8403, 8370, 9460, 9493, 9492, 9459
7894, 8372, 8405, 8404, 8371, 9461, 9494, 9493, 9460
7895, 8373, 8406, 8405, 8372, 9462, 9495, 9494, 9461
7896, 8374, 8407, 8406, 8373, 9463, 9496, 9495, 9462
7897, 8375, 8408, 8407, 8374, 9464, 9497, 9496, 9463
7898, 8376, 8409, 8408, 8375, 9465, 9498, 9497, 9464
7899, 8377, 8410, 8409, 8376, 9466, 9499, 9498, 9465
7900, 8378, 8411, 8410, 8377, 9467, 9500, 9499, 9466
7901, 8379, 8412, 8411, 8378, 9468, 9501, 9500, 9467
7902, 8380, 8413, 8412, 8379, 9469, 9502, 9501, 9468
7903, 8381, 8414, 8413, 8380, 9470, 9503, 9502, 9469
7904, 8382, 8415, 8414, 8381, 9471, 9504, 9503, 9470
7905, 8384, 8417, 8416, 8383, 9473, 9506, 9505, 9472
7906, 8385, 8418, 8417, 8384, 9474, 9507, 9506, 9473
7907, 8386, 8419, 8418, 8385, 9475, 9508, 9507, 9474
7908, 8387, 8420, 8419, 8386, 9476, 9509, 9508, 9475
7909, 8388, 8421, 8420, 8387, 9477, 9510, 9509, 9476
7910, 8389, 8422, 8421, 8388, 9478, 9511, 9510, 9477
7911, 8390, 8423, 8422, 8389, 9479, 9512, 9511, 9478
7912, 8391, 8424, 8423, 8390, 9480, 9513, 9512, 9479
7913, 8392, 8425, 8424, 8391, 9481, 9514, 9513, 9480
7914, 8393, 8426, 8425, 8392, 9482, 9515, 9514, 9481
7915, 8394, 8427, 8426, 8393, 9483, 9516, 9515, 9482
7916, 8395, 8428, 8427, 8394, 9484, 9517, 9516, 9483
7917, 8396, 8429, 8428, 8395, 9485, 9518, 9517, 9484
7918, 8397, 8430, 8429, 8396, 9486, 9519, 9518, 9485
7919, 8398, 8431, 8430, 8397, 9487, 9520, 9519, 9486
7920, 8399, 8432, 8431, 8398, 9488, 9521, 9520, 9487
7921, 8400, 8433, 8432, 8399, 9489, 9522, 9521, 9488
7922, 8401, 8434, 8433, 8400, 9490, 9523, 9522, 9489
7923, 8402, 8435, 8434, 8401, 9491, 9524, 9523, 9490
7924, 8403, 8436, 8435, 8402, 9492, 9525, 9524, 9491
7925, 8404, 8437, 8436, 8403, 9493, 9526, 9525, 9492
7926, 8405, 8438, 8437, 8404, 9494, 9527, 9526, 9493
7927, 8406, 8439, 8438, 8405, 9495, 9528, 9527, 9494
7928, 8407, 8440, 8439, 8406, 9496, 9529, 9528, 9495
7929, 8408, 8441, 8440, 8407, 9497, 9530, 9529, 9496
7930, 8409, 8442, 8441, 8408, 9498, 9531, 9530, 9497
7931, 8410, 8443, 8442, 8409, 9499, 9532, 9531, 9498
7932, 8411, 8444, 8443, 8410, 9500, 9533, 9532, 9499
7933, 8412, 8445, 8444, 8411, 9501, 9534, 9533, 9500
7934, 8413, 8446, 8445, 8412, 9502, 9535, 9534, 9501
7935, 8414, 8447, 8446, 8413, 9503, 9536, 9535, 9502
7936, 8415, 8448, 8447, 8414, 9504, 9537, 9536, 9503
7937, 8417, 8450, 8449, 8416, 9506, 9539, 9538, 9505
7938, 8418, 8451, 8450, 8417, 9507, 9540, 9539, 9506
7939, 8419, 8452, 8451, 8418, 9508, 9541, 9540, 9507
7940, 8420, 8453, 8452, 8419, 9509, 9542, 9541, 9508
7941, 8421, 8454, 8453, 8420, 9510, 9543, 9542, 9509
7942, 8422, 8455, 8454, 8421, 9511, 9544, 9543, 9510
7943, 8423, 8456, 8455, 8422, 9512, 9545, 9544, 9511
7944, 8424, 8457, 8456, 8423, 9513, 9546, 9545, 9512
7945, 8425, 8458, 8457, 8424, 9514, 9547, 9546, 9513
7946, 8426, 8459, 8458, 8425, 9515, 9548, 9547, 9514
7947, 8427, 8460, 8459, 8426, 9516, 9549, 9548, 9515
7948, 8428, 8461, 8460, 8427, 9517, 9550, 9549, 9516
7949, 8429, 8462, 8461, 8428, 9518, 9551, 9550, 9517
7950, 8430, 8463, 8462, 8429, 9519, 9552, 9551, 9518
7951, 8431, 8464, 8463, 8430, 9520, 9553, 9552, 9519
7952, 8432, 8465, 8464, 8431, 9521, 9554, 9553, 9520
7953, 8433, 8466, 8465, 8432, 9522, 9555, 9554, 9521
7954, 8434, 8467, 8466, 8433, 9523, 9556, 9555, 9522
7955, 8435, 8468, 8467, 8434, 9524, 9557, 9556, 9523
7956, 8436, 8469, 8468, 8435, 9525, 9558, 9557, 9524
7957, 8437, 8470, 8469, 8436, 9526, 9559, 9558, 9525
7958, 8438, 8471, 8470, 8437, 9527, 9560, 9559, 9526
7959, 8439, 8472, 8471, 8438, 9528, 9561, 9560, 9527
7960, 8440, 8473, 8472, 8439, 9529, 9562, 9561, 9528
7961, 8441, 8474, 8473, 8440, 9530, 9563, 9562, 9529
7962, 8442, 8475, 8474, 8441, 9531, 9564, 9563, 9530
7963, 8443, 8476, 8475, 8442, 9532, 9565, 9564, 9531
7964, 8444, 8477, 8476, 8443, 9533, 9566, 9565, 9532
7965, 8445, 8478, 8477, 8444, 9534, 9567, 9566, 9533
7966, 8446, 8479, 8478, 8445, 9535, 9568, 9567, 9534
7967, 8447, 8480, 8479, 8446, 9536, 9569, 9568, 9535
7968, 8448, 8481, 8480, 8447, 9537, 9570, 9569, 9536
7969, 8450, 8483, 8482, 8449, 9539, 9572, 9571, 9538
7970, 8451, 8484, 8483, 8450, 9540, 9573, 9572, 9539
7971, 8452, 8485, 8484, 8451, 9541, 9574, 9573, 9540
7972, 8453, 8486, 8485, 8452, 9542, 9575, 9574, 9541
7973, 8454, 8487, 8486, 8453, 9543, 9576, 9575, 9542
7974, 8455, 8488, 8487, 8454, 9544, 9577, 9576, 9543
7975, 8456, 8489, 8488, 8455, 9545, 9578, 9577, 9544
7976, 8457, 8490, 8489, 8456, 9546, 9579, 9578, 9545
7977, 8458, 8491, 8490, 8457, 9547, 9580, 9579, 9546
7978, 8459, 8492, 8491, 8458, 9548, 9581, 9580, 9547
7979, 8460, 8493, 8492, 8459, 9549, 9582, 9581, 9548
7980, 8461, 8494, 8493, 8460, 9550, 9583, 9582, 9549
7981, 8462, 8495, 8494, 8461, 9551, 9584, 9583, 9550
7982, 8463, 8496, 8495, 8462, 9552, 9585, 9584, 9551
7983, 8464, 8497, 8496, 8463, 9553, 9586, 9585, 9552
7984, 8465, 8498, 8497, 8464, 9554, 9587, 9586, 9553
7985, 8466, 8499, 8498, 8465, 9555, 9588, 9587, 9554
7986, 8467, 8500, 8499, 8466, 9556, 9589, 9588, 9555
7987, 8468, 8501, 8500, 8467, 9557, 9590, 9589, 9556
7988, 8469, 8502, 8501, 8468, 9558, 9591, 9590, 9557
7989, 8470, 8503, 8502, 8469, 9559, 9592, 9591, 9558
7990, 8471, 8504, 8503, 8470, 9560, 9593, 9592, 9559
7991, 8472, 8505, 8504, 8471, 9561, 9594, 9593, 9560
7992, 8473, 8506, 8505, 8472, 9562, 9595, 9594, 9561
7993, 8474, 8507, 8506, 8473, 9563, 9596, 9595, 9562
7994, 8475, 8508, 8507, 8474, 9564, 9597, 9596, 9563
7995, 8476, 8509, 8508, 8475, 9565, 9598, 9597, 9564
7996, 8477, 8510, 8509, 8476, 9566, 9599, 9598, 9565
7997, 8478, 8511, 8510, 8477, 9567, 9600, 9599, 9566
7998, 8479, 8512, 8511, 8478, 9568, 9601, 9600, 9567
7999, 8480, 8513, 8512, 8479, 9569, 9602, 9601, 9568
8000, 8481, 8514, 8513, 8480, 9570, 9603, 9602, 9569
8001, 8483, 8516, 8515, 8482, 9572, 9605, 9604, 9571
8002, 8484, 8517, 8516, 8483, 9573, 9606, 9605, 9572
8003, 8485, 8518, 8517, 8484, 9574, 9607, 9606, 9573
8004, 8486, 8519, 8518, 8485, 9575, 9608, 9607, 9574
8005, 8487, 8520, 8519, 8486, 9576, 9609, 9608, 9575
8006, 8488, 8521, 8520, 8487, 9577, 9610, 9609, 9576
8007, 8489, 8522, 8521, 8488, 9578, 9611, 9610, 9577
8008, 8490, 8523, 8522, 8489, 9579, 9612, 9611, 9578
8009, 8491, 8524, 8523, 8490, 9580, 9613, 9612, 9579
8010, 8492, 8525, 8524, 8491, 9581, 9614, 9613, 9580
8011, 8493, 8526, 8525, 8492, 9582, 9615, 9614, 9581
8012, 8494, 8527, 8526, 8493, 9583, 9616, 9615, 9582
8013, 8495, 8528, 8527, 8494, 9584, 9617, 9616, 9583
8014, 8496, 8529, 8528, 8495, 9585, 9618, 9617, 9584
8015, 8497, 8530, 8529, 8496, 9586, 9619, 9618, 9585
8016, 8498, 8531, 8530, 8497, 9587, 9620, 9619, 9586
8017, 8499, 8532, 8531, 8498, 9588, 9621, 9620, 9587
8018, 8500, 8533, 8532, 8499, 9589, 9622, 9621, 9588
8019, 8501, 8534, 8533, 8500, 9590, 9623, 9622, 9589
8020, 8502, 8535, 8534, 8501, 9591, 9624, 9623, 9590
8021, 8503, 8536, 8535, 8502, 9592, 9625, 9624, 9591
8022, 8504, 8537, 8536, 8503, 9593, 9626, 9625, 9592
8023, 8505, 8538, 8537, 8504, 9594, 9627, 9626, 9593
8024, 8506, 8539, 8538, 8505, 9595, 9628, 9627, 9594
8025, 8507, 8540, 8539, 8506, 9596, 9629, 9628, 9595
8026, 8508, 8541, 8540, 8507, 9597, 9630, 9629, 9596
8027, 8509, 8542, 8541, 8508, 9598, 9631, 9630, 9597
8028, 8510, 8543, 8542, 8509, 9599, 9632, 9631, 9598
8029, 8511, 8544, 8543, 8510, 9600, 9633, 9632, 9599
8030, 8512, 8545, 8544, 8511, 9601, 9634, 9633, 9600
8031, 8513, 8546, 8545, 8512, 9602, 9635, 9634, 9601
8032, 8514, 8547, 8546, 8513, 9603, 9636, 9635, 9602
8033, 8516, 8549, 8548, 8515, 9605, 9638, 9637, 9604
8034, 8517, 8550, 8549, 8516, 9606, 9639, 9638, 9605
8035, 8518, 8551, 8550, 8517, 9607, 9640, 9639, 9606
8036, 8519, 8552, 8551, 8518, 9608, 9641, 9640, 9607
8037, 8520, 8553, 8552, 8519, 9609, 9642, 9641, 9608
8038, 8521, 8554, 8553, 8520, 9610, 9643, 9642, 9609
8039, 8522, 8555, 8554, 8521, 9611, 9644, 9643, 9610
8040, 8523, 8556, 8555, 8522, 9612, 9645, 9644, 9611
8041, 8524, 8557, 8556, 8523, 9613, 9646, 9645, 9612
8042, 8525, 8558, 8557, 8524, 9614, 9647, 9646, 9613
8043, 8526, 8559, 8558, 8525, 9615, 9648, 9647, 9614
8044, 8527, 8560, 8559, 8526, 9616, 9649, 9648, 9615
8045, 8528, 8561, 8560, 8527, 9617, 9650, 9649, 9616
8046, 8529, 8562, 8561, 8528, 9618, 9651, 9650, 9617
8047, 8530, 8563, 8562, 8529, 9619, 9652, 9651, 9618
8048, 8531, 8564, 8563, 8530, 9620, 9653, 9652, 9619
8049, 8532, 8565, 8564, 8531, 9621, 9654, 9653, 9620
8050, 8533, 8566, 8565, 8532, 9622, 9655, 9654, 9621
8051, 8534, 8567, 8566, 8533, 9623, 9656, 9655, 9622
8052, 8535, 8568, 8567, 8534, 9624, 9657, 9656, 9623
8053, 8536, 8569, 8568, 8535, 9625, 9658, 9657, 9624
8054, 8537, 8570, 8569, 8536, 9626, 9659, 9658, 9625
8055, 8538, 8571, 8570, 8537, 9627, 9660, 9659, 9626
8056, 8539, 8572, 8571, 8538, 9628, 9661, 9660, 9627
8057, 8540, 8573, 8572, 8539, 9629, 9662, 9661, 9628
8058, 8541, 8574, 8573, 8540, 9630, 9663, 9662, 9629
8059, 8542, 8575, 8574, 8541, 9631, 9664, 9663, 9630
8060, 8543, 8576, 8575, 8542, 9632, 9665, 9664, 9631
8061, 8544, 8577, 8576, 8543, 9633, 9666, 9665, 9632
8062, 8545, 8578, 8577, 8544, 9634, 9667, 9666, 9633
8063, 8546, 8579, 8578, 8545, 9635, 9668, 9667, 9634
8064, 8547, 8580, 8579, 8546, 9636, 9669, 9668, 9635
8065, 8549, 8582, 8581, 8548, 9638, 9671, 9670, 9637
8066, 8550, 8583, 8582, 8549, 9639, 9672, 9671, 9638
8067, 8551, 8584, 8583, 8550, 9640, 9673, 9672, 9639
8068, 8552, 8585, 8584, 8551, 9641, 9674, 9673, 9640
8069, 8553, 8586, 8585, 8552, 9642, 9675, 9674, 9641
8070, 8554, 8587, 8586, 8553, 9643, 9676, 9675, 9642
8071, 8555, 8588, 8587, 8554, 9644, 9677, 9676, 9643
8072, 8556, 8589, 8588, 8555, 9645, 9678, 9677, 9644
8073, 8557, 8590, 8589, 8556, 9646, 9679, 9678, 9645
8074, 8558, 8591, 8590, 8557, 9647, 9680, 9679, 9646
8075, 8559, 8592, 8591, 8558, 9648, 9681, 9680, 9647
8076, 8560, 8593, 8592, 8559, 9649, 9682, 9681, 9648
8077, 8561, 8594, 8593, 8560, 9650, 9683, 9682, 9649
8078, 8562, 8595, 8594, 8561, 9651, 9684, 9683, 9650
8079, 8563, 8596, 8595, 8562, 9652, 9685, 9684, 9651
8080, 8564, 8597, 8596, 8563, 9653, 9686, 9685, 9652
8081, 8565, 8598, 8597, 8564, 9654, 9687, 9686, 9653
8082, 8566, 8599, 8598, 8565, 9655, 9688, 9687, 9654
8083, 8567, 8600, 8599, 8566, 9656, 9689, 9688, 9655
8084, 8568, 8601, 8600, 8567, 9657, 9690, 9689, 9656
8085, 8569, 8602, 8601, 8568, 9658, 9691, 9690, 9657
8086, 8570, 8603, 8602, 8569, 9659, 9692, 9691, 9658
8087, 8571, 8604, 8603, 8570, 9660, 9693, 9692, 9659
8088, 8572, 8605, 8604, 8571, 9661, 9694, 9693, 9660
8089, 8573, 8606, 8605, 8572, 9662, 9695, 9694, 9661
8090, 8574, 8607, 8606, 8573, 9663, 9696, 9695, 9662
8091, 8575, 8608, 8607, 8574, 9664, 9697, 9696, 9663
8092, 8576, 8609, 8608, 8575, 9665, 9698, 9697, 9664
8093, 8577, 8610, 8609, 8576, 9666, 9699, 9698, 9665
8094, 8578, 8611, 8610, 8577, 9667, 9700, 9699, 9666
8095, 8579, 8612, 8611, 8578, 9668, 9701, 9700, 9667
8096, 8580, 8613, 8612, 8579, 9669, 9702, 9701, 9668
8097, 8582, 8615, 8614, 8581, 9671, 9704, 9703, 9670
8098, 8583, 8616, 8615, 8582, 9672, 9705, 9704, 9671
8099, 8584, 8617, 8616, 8583, 9673, 9706, 9705, 9672
8100, 8585, 8618, 8617, 8584, 9674, 9707, 9706, 9673
8101, 8586, 8619, 8618, 8585, 9675, 9708, 9707, 9674
8102, 8587, 8620, 8619, 8586, 9676, 9709, 9708, 9675
8103, 8588, 8621, 8620, 8587, 9677, 9710, 9709, 9676
8104, 8589, 8622, 8621, 8588, 9678, 9711, 9710, 9677
8105, 8590, 8623, 8622, 8589, 9679, 9712, 9711, 9678
8106, 8591, 8624, 8623, 8590, 9680, 9713, 9712, 9679
8107, 8592, 8625, 8624, 8591, 9681, 9714, 9713, 9680
8108, 8593, 8626, 8625, 8592, 9682, 9715, 9714, 9681
8109, 8594, 8627, 8626, 8593, 9683, 9716, 9715, 9682
8110, 8595, 8628, 8627, 8594, 9684, 9717, 9716, 9683
8111, 8596, 8629, 8628, 8595, 9685, 9718, 9717, 9684
8112, 8597, 8630, 8629, 8596, 9686, 9719, 9718, 9685
8113, 8598, 8631, 8630, 8597, 9687, 9720, 9719, 9686
8114, 8599, 8632, 8631, 8598, 9688, 9721, 9720, 9687
8115, 8600, 8633, 8632, 8599, 9689, 9722, 9721, 9688
8116, 8601, 8634, 8633, 8600, 9690, 9723, 9722, 9689
8117, 8602, 8635, 8634, 8601, 9691, 9724, 9723, 9690
8118, 8603, 8636, 8635, 8602, 9692, 9725, 9724, 9691
8119, 8604, 8637, 8636, 8603, 9693, 9726, 9725, 9692
8120, 8605, 8638, 8637, 8604, 9694, 9727, 9726, 9693
8121, 8606, 8639, 8638, 8605, 9695, 9728, 9727, 9694
8122, 8607, 8640, 8639, 8606, 9696, 9729, 9728, 9695
8123, 8608, 8641, 8640, 8607, 9697, 9730, 9729, 9696
8124, 8609, 8642, 8641, 8608, 9698, 9731, 9730, 9697
8125, 8610, 8643, 8642, 8609, 9699, 9732, 9731, 9698
8126, 8611, 8644, 8643, 8610, 9700, 9733, 9732, 9699
8127, 8612, 8645, 8644, 8611, 9701, 9734, 9733, 9700
8128, 8613, 8646, 8645, 8612, 9702, 9735, 9734, 9701
8129, 8615, 8648, 8647, 8614, 9704, 9737, 9736, 9703
8130, 8616, 8649, 8648, 8615, 9705, 9738, 9737, 9704
8131, 8617, 8650, 8649, 8616, 9706, 9739, 9738, 9705
8132, 8618, 8651, 8650, 8617, 9707, 9740, 9739, 9706
8133, 8619, 8652, 8651, 8618, 9708, 9741, 9740, 9707
8134, 8620, 8653, 8652, 8619, 9709, 9742, 9741, 9708
8135, 8621, 8654, 8653, 8620, 9710, 9743, 9742, 9709
8136, 8622, 8655, 8654, 8621, 9711, 9744, 9743, 9710
8137, 8623, 8656, 8655, 8622, 9712, 9745, 9744, 9711
8138, 8624, 8657, 8656, 8623, 9713, 9746, 9745, 9712
8139, 8625, 8658, 8657, 8624, 9714, 9747, 9746, 9713
8140, 8626, 8659, 8658, 8625, 9715, 9748, 9747, 9714
8141, 8627, 8660, 8659, 8626, 9716, 9749, 9748, 9715
8142, 8628, 8661, 8660, 8627, 9717, 9750, 9749, 9716
8143, 8629, 8662, 8661, 8628, 9718, 9751, 9750, 9717
8144, 8630, 8663, 8662, 8629, 9719, 9752, 9751, 9718
8145, 8631, 8664, 8663, 8630, 9720, 9753, 9752, 9719
8146, 8632, 8665, 8664, 8631, 9721, 9754, 9753, 9720
8147, 8633, 8666, 8665, 8632, 9722, 9755, 9754, 9721
8148, 8634, 8667, 8666, 8633, 9723, 9756, 9755, 9722
8149, 8635, 8668, 8667, 8634, 9724, 9757, 9756, 9723
8150, 8636, 8669, 8668, 8635, 9725, 9758, 9757, 9724
8151, 8637, 8670, 8669, 8636, 9726, 9759, 9758, 9725
8152, 8638, 8671, 8670, 8637, 9727, 9760, 9759, 9726
8153, 8639, 8672, 8671, 8638, 9728, 9761, 9760, 9727
8154, 8640, 8673, 8672, 8639, 9729, 9762, 9761, 9728
8155, 8641, 8674, 8673, 8640, 9730, 9763, 9762, 9729
8156, 8642, 8675, 8674, 8641, 9731, 9764, 9763, 9730
8157, 8643, 8676, 8675, 8642, 9732, 9765, 9764, 9731
8158, 8644, 8677, 8676, 8643, 9733, 9766, 9765, 9732
8159, 8645, 8678, 8677, 8644, 9734, 9767, 9766, 9733
8160, 8646, 8679, 8678, 8645, 9735, 9768, 9767, 9734
8161, 8648, 8681, 8680, 8647, 9737, 9770, 9769, 9736
8162, 8649, 8682, 8681, 8648, 9738, 9771, 9770, 9737
8163, 8650, 8683, 8682, 8649, 9739, 9772, 9771, 9738
8164, 8651, 8684, 8683, 8650, 9740, 9773, 9772, 9739
8165, 8652, 8685, 8684, 8651, 9741, 9774, 9773, 9740
8166, 8653, 8686, 8685, 8652, 9742, 9775, 9774, 9741
8167, 8654, 8687, 8686, 8653, 9743, 9776, 9775, 9742
8168, 8655, 8688, 8687, 8654, 9744, 9777, 9776, 9743
8169, 8656, 8689, 8688, 8655, 9745, 9778, 9777, 9744
8170, 8657, 8690, 8689, 8656, 9746, 9779, 9778, 9745
8171, 8658, 8691, 8690, 8657, 9747, 9780, 9779, 9746
8172, 8659, 8692, 8691, 8658, 9748, 9781, 9780, 9747
8173, 8660, 8693, 8692, 8659, 9749, 9782, 9781, 9748
8174, 8661, 8694, 8693, 8660, 9750, 9783, 9782, 9749
8175, 8662, 8695, 8694, 8661, 9751, 9784, 9783, 9750
8176, 8663, 8696, 8695, 8662, 9752, 9785, 9784, 9751
8177, 8664, 8697, 8696, 8663, 9753, 9786, 9785, 9752
8178, 8665, 8698, 8697, 8664, 9754, 9787, 9786, 9753
8179, 8666, 8699, 8698, 8665, 9755, 9788, 9787, 9754
8180, 8667, 8700, 8699, 8666, 9756, 9789, 9788, 9755
8181, 8668, 8701, 8700, 8667, 9757, 9790, 9789, 9756
8182, 8669, 8702, 8701, 8668, 9758, 9791, 9790, 9757
8183, 8670, 8703, 8702, 8669, 9759, 9792, 9791, 9758
8184, 8671, 8704, 8703, 8670, 9760, 9793, 9792, 9759
8185, 8672, 8705, 8704, 8671, 9761, 9794, 9793, 9760
8186, 8673, 8706, 8705, 8672, 9762, 9795, 9794, 9761
8187, 8674, 8707, 8706, 8673, 9763, 9796, 9795, 9762
8188, 8675, 8708, 8707, 8674, 9764, 9797, 9796, 9763
8189, 8676, 8709, 8708, 8675, 9765, 9798, 9797, 9764
8190, 8677, 8710, 8709, 8676, 9766, 9799, 9798, 9765
8191, 8678, 8711, 8710, 8677, 9767, 9800, 9799, 9766
8192, 8679, 8712, 8711, 8678, 9768, 9801, 9800, 9767
********************
*** ORIENTATIONS ***
********************
** Orientation vectors
** 1st vector represents the fibre direction
** 2nd vector is an arbitrary vector perpendicular to the first
*Distribution Table, Name=TexGenOrientationVectors
COORD3D,COORD3D
*Distribution, Location=Element, Table=TexGenOrientationVectors, Name=TexGenOrientationVectors, Input=plain_weave_3d.ori
*Orientation, Name=TexGenOrientations, Definition=coordinates
TexGenOrientationVectors
1, 0
********************
*** ELEMENT SETS ***
********************
** TexGen generates a number of element sets:
** All - Contains all elements
** Matrix - Contains all elements belonging to the matrix
** YarnX - Where X represents the yarn index
*ElSet, ElSet=AllElements, Generate
1, 8192, 1
*ElSet, ElSet=Matrix
1, 2, 3, 4, 5, 6, 7, 8, 9, 10, 11, 12, 13, 14, 15, 16
17, 18, 19, 20, 21, 22, 23, 24, 25, 26, 27, 28, 29, 30, 31, 32
33, 34, 35, 36, 37, 38, 39, 40, 41, 42, 43, 44, 45, 46, 47, 48
49, 50, 51, 52, 53, 54, 55, 56, 57, 58, 59, 60, 61, 62, 63, 64
65, 66, 67, 68, 69, 70, 71, 72, 73, 74, 75, 76, 77, 78, 79, 80
81, 82, 83, 84, 85, 86, 87, 88, 89, 90, 91, 92, 93, 94, 95, 96
97, 98, 99, 100, 101, 102, 103, 104, 105, 106, 107, 108, 109, 110, 111, 112
113, 114, 115, 116, 117, 118, 119, 120, 121, 122, 123, 124, 125, 126, 127, 128
129, 130, 131, 132, 133, 134, 135, 136, 137, 138, 139, 140, 141, 142, 143, 144
145, 146, 147, 148, 149, 150, 151, 152, 153, 154, 155, 156, 157, 158, 159, 160
161, 162, 163, 164, 165, 166, 167, 168, 169, 170, 171, 172, 173, 174, 175, 176
177, 178, 179, 180, 181, 182, 183, 184, 185, 186, 187, 188, 189, 190, 191, 192
193, 194, 195, 196, 197, 198, 199, 202, 203, 204, 205, 206, 207, 208, 209, 210
211, 212, 213, 214, 215, 218, 219, 220, 221, 222, 223, 224, 225, 226, 227, 228
229, 230, 235, 236, 237, 238, 239, 240, 241, 242, 243, 244, 245, 246, 251, 252
253, 254, 255, 256, 257, 258, 259, 260, 261, 262, 267, 268, 269, 270, 271, 272
273, 274, 275, 276, 277, 278, 283, 284, 285, 286, 287, 288, 289, 290, 291, 292
293, 294, 295, 298, 299, 300, 301, 302, 303, 304, 305, 306, 307, 308, 309, 310
311, 314, 315, 316, 317, 318, 319, 320, 321, 322, 323, 324, 325, 326, 327, 328
329, 330, 331, 332, 333, 334, 335, 336, 337, 338, 339, 340, 341, 342, 343, 344
345, 346, 347, 348, 349, 350, 351, 352, 353, 354, 355, 356, 357, 358, 359, 360
361, 362, 363, 364, 365, 366, 367, 368, 369, 370, 371, 372, 373, 374, 375, 376
377, 378, 379, 380, 381, 382, 383, 384, 385, 386, 387, 388, 389, 390, 391, 392
393, 394, 395, 396, 397, 398, 399, 400, 401, 402, 403, 404, 405, 406, 407, 408
409, 410, 411, 412, 413, 414, 415, 416, 417, 418, 419, 420, 421, 422, 423, 424
425, 426, 427, 428, 429, 430, 431, 432, 433, 434, 435, 436, 437, 438, 439, 440
441, 442, 443, 444, 445, 446, 447, 448, 449, 450, 451, 452, 453, 454, 455, 456
457, 458, 459, 460, 461, 462, 463, 464, 465, 466, 467, 468, 469, 470, 471, 472
473, 474, 475, 476, 477, 478, 479, 480, 481, 482, 483, 484, 485, 486, 487, 488
489, 490, 491, 492, 493, 494, 495, 496, 497, 498, 499, 500, 501, 502, 503, 504
505, 506, 507, 508, 509, 510, 511, 512, 513, 514, 515, 516, 517, 518, 519, 520
521, 522, 523, 524, 525, 526, 527, 528, 529, 530, 531, 532, 533, 534, 535, 536
537, 538, 539, 540, 541, 542, 543, 544, 545, 546, 547, 548, 549, 550, 551, 552
553, 554, 555, 556, 557, 558, 559, 560, 561, 562, 563, 564, 565, 566, 567, 568
569, 570, 571, 572, 573, 574, 575, 576, 577, 578, 579, 580, 581, 582, 583, 584
585, 586, 587, 588, 589, 590, 591, 592, 593, 594, 595, 596, 597, 598, 599, 600
601, 602, 603, 604, 605, 606, 607, 608, 609, 610, 611, 612, 613, 614, 615, 616
617, 618, 619, 620, 621, 622, 623, 624, 625, 626, 627, 628, 629, 630, 631, 632
633, 634, 635, 636, 637, 638, 639, 640, 641, 642, 643, 644, 645, 646, 647, 648
649, 650, 651, 652, 653, 654, 655, 656, 657, 658, 659, 660, 661, 662, 663, 664
665, 666, 667, 668, 669, 670, 671, 672, 673, 674, 675, 676, 677, 678, 679, 680
681, 682, 683, 684, 685, 686, 687, 688, 689, 690, 691, 692, 693, 694, 695, 696
697, 698, 699, 700, 701, 702, 703, 704, 705, 706, 707, 708, 709, 710, 711, 714
715, 716, 717, 718, 719, 720, 721, 722, 723, 724, 725, 726, 727, 730, 731, 732
733, 734, 735, 736, 737, 738, 739, 740, 741, 742, 747, 748, 749, 750, 751, 752
753, 754, 755, 756, 757, 758, 763, 764, 765, 766, 767, 768, 769, 770, 771, 772
773, 774, 779, 780, 781, 782, 783, 784, 785, 786, 787, 788, 789, 790, 795, 796
797, 798, 799, 800, 801, 802, 803, 804, 805, 806, 807, 810, 811, 812, 813, 814
815, 816, 817, 818, 819, 820, 821, 822, 823, 826, 827, 828, 829, 830, 831, 832
833, 834, 835, 836, 837, 838, 839, 840, 841, 842, 843, 844, 845, 846, 847, 848
849, 850, 851, 852, 853, 854, 855, 856, 857, 858, 859, 860, 861, 862, 863, 864
865, 866, 867, 868, 869, 870, 871, 872, 873, 874, 875, 876, 877, 878, 879, 880
881, 882, 883, 884, 885, 886, 887, 888, 889, 890, 891, 892, 893, 894, 895, 896
897, 898, 899, 900, 901, 902, 903, 904, 905, 906, 907, 908, 909, 910, 911, 912
913, 914, 915, 916, 917, 918, 919, 920, 921, 922, 923, 924, 925, 926, 927, 928
929, 930, 931, 932, 933, 934, 935, 936, 937, 938, 939, 940, 941, 942, 943, 944
945, 946, 947, 948, 949, 950, 951, 952, 953, 954, 955, 956, 957, 958, 959, 960
961, 962, 963, 964, 965, 966, 967, 968, 969, 970, 971, 972, 973, 974, 975, 976
977, 978, 979, 980, 981, 982, 983, 984, 985, 986, 987, 988, 989, 990, 991, 992
993, 994, 995, 996, 997, 998, 999, 1000, 1001, 1002, 1003, 1004, 1005, 1006, 1007, 1008
1009, 1010, 1011, 1012, 1013, 1014, 1015, 1016, 1017, 1018, 1019, 1020, 1021, 1022, 1023, 1024
1025, 1026, 1027, 1028, 1029, 1030, 1031, 1032, 1033, 1034, 1035, 1036, 1037, 1038, 1039, 1040
1041, 1042, 1043, 1044, 1045, 1046, 1047, 1048, 1049, 1050, 1051, 1052, 1053, 1054, 1055, 1056
1057, 1058, 1059, 1060, 1061, 1062, 1063, 1064, 1065, 1066, 1067, 1068, 1069, 1070, 1071, 1072
1073, 1074, 1075, 1076, 1077, 1078, 1079, 1080, 1081, 1082, 1083, 1084, 1085, 1086, 1087, 1088
1089, 1090, 1091, 1092, 1093, 1100, 1101, 1102, 1103, 1104, 1105, 1106, 1107, 1108, 1109, 1116
1117, 1118, 1119, 1120, 1121, 1122, 1123, 1124, 1133, 1134, 1135, 1136, 1137, 1138, 1139, 1140
1149, 1150, 1151, 1152, 1153, 1154, 1155, 1166, 1167, 1168, 1169, 1170, 1171, 1182, 1183, 1184
1185, 1186, 1199, 1200, 1201, 1202, 1215, 1216, 1217, 1218, 1231, 1232, 1233, 1234, 1247, 1248
1249, 1250, 1263, 1264, 1265, 1266, 1279, 1280, 1281, 1282, 1295, 1296, 1297, 1298, 1311, 1312
1313, 1314, 1327, 1328, 1329, 1330, 1343, 1344, 1345, 1346, 1359, 1360, 1361, 1362, 1375, 1376
1377, 1378, 1379, 1390, 1391, 1392, 1393, 1394, 1395, 1406, 1407, 1408, 1409, 1410, 1411, 1412
1421, 1422, 1423, 1424, 1425, 1426, 1427, 1428, 1437, 1438, 1439, 1440, 1441, 1442, 1443, 1444
1445, 1452, 1453, 1454, 1455, 1456, 1457, 1458, 1459, 1460, 1461, 1468, 1469, 1470, 1471, 1472
1473, 1474, 1475, 1476, 1477, 1478, 1479, 1480, 1481, 1482, 1483, 1484, 1485, 1486, 1487, 1488
1489, 1490, 1491, 1492, 1493, 1494, 1495, 1496, 1497, 1498, 1499, 1500, 1501, 1502, 1503, 1504
1505, 1506, 1507, 1508, 1509, 1510, 1511, 1512, 1513, 1514, 1515, 1516, 1517, 1518, 1519, 1520
1521, 1522, 1523, 1524, 1525, 1526, 1527, 1528, 1529, 1530, 1531, 1532, 1533, 1534, 1535, 1536
1537, 1538, 1539, 1540, 1541, 1542, 1543, 1544, 1545, 1546, 1547, 1548, 1549, 1550, 1551, 1552
1553, 1554, 1555, 1556, 1557, 1558, 1559, 1560, 1561, 1562, 1563, 1564, 1565, 1566, 1567, 1568
1569, 1570, 1571, 1572, 1573, 1574, 1575, 1576, 1577, 1578, 1579, 1580, 1581, 1582, 1583, 1584
1585, 1586, 1587, 1588, 1589, 1590, 1591, 1592, 1593, 1594, 1595, 1596, 1597, 1598, 1599, 1600
1601, 1602, 1603, 1604, 1605, 1612, 1613, 1614, 1615, 1616, 1617, 1618, 1619, 1620, 1621, 1628
1629, 1630, 1631, 1632, 1633, 1634, 1635, 1636, 1645, 1646, 1647, 1648, 1649, 1650, 1651, 1652
1661, 1662, 1663, 1664, 1665, 1666, 1667, 1678, 1679, 1680, 1681, 1682, 1683, 1694, 1695, 1696
1697, 1698, 1711, 1712, 1713, 1714, 1727, 1728, 1729, 1730, 1743, 1744, 1745, 1746, 1759, 1760
1761, 1762, 1775, 1776, 1777, 1778, 1791, 1792, 1793, 1794, 1807, 1808, 1809, 1810, 1823, 1824
1825, 1826, 1839, 1840, 1841, 1842, 1855, 1856, 1857, 1858, 1871, 1872, 1873, 1874, 1887, 1888
1889, 1890, 1891, 1902, 1903, 1904, 1905, 1906, 1907, 1918, 1919, 1920, 1921, 1922, 1923, 1924
1933, 1934, 1935, 1936, 1937, 1938, 1939, 1940, 1949, 1950, 1951, 1952, 1953, 1954, 1955, 1956
1957, 1964, 1965, 1966, 1967, 1968, 1969, 1970, 1971, 1972, 1973, 1980, 1981, 1982, 1983, 1984
1985, 1986, 1987, 1988, 1989, 1990, 1991, 1992, 1993, 1994, 1995, 1996, 1997, 1998, 1999, 2000
2001, 2002, 2003, 2004, 2005, 2006, 2007, 2008, 2009, 2010, 2011, 2012, 2013, 2014, 2015, 2016
2017, 2018, 2019, 2020, 2021, 2022, 2023, 2024, 2025, 2026, 2027, 2028, 2029, 2030, 2031, 2032
2033, 2034, 2035, 2036, 2037, 2038, 2039, 2040, 2041, 2042, 2043, 2044, 2045, 2046, 2047, 2048
2049, 2050, 2051, 2052, 2053, 2060, 2061, 2062, 2063, 2064, 2065, 2066, 2067, 2068, 2077, 2078
2079, 2080, 2081, 2082, 2083, 2084, 2085, 2086, 2087, 2088, 2089, 2090, 2091, 2092, 2093, 2094
2095, 2096, 2097, 2098, 2099, 2110, 2111, 2112, 2113, 2114, 2127, 2128, 2129, 2130, 2143, 2144
2145, 2160, 2161, 2162, 2175, 2176, 2193, 2194, 2207, 2208, 2226, 2239, 2258, 2271, 2290, 2303
2322, 2335, 2354, 2367, 2386, 2399, 2417, 2418, 2431, 2432, 2433, 2448, 2449, 2450, 2463, 2464
2465, 2466, 2479, 2480, 2481, 2482, 2495, 2496, 2497, 2498, 2499, 2500, 2501, 2502, 2503, 2504
2505, 2506, 2507, 2508, 2509, 2510, 2511, 2512, 2513, 2514, 2515, 2526, 2527, 2528, 2529, 2530
2531, 2532, 2533, 2540, 2541, 2542, 2543, 2544, 2545, 2546, 2547, 2548, 2557, 2558, 2559, 2560
2561, 2562, 2563, 2564, 2573, 2574, 2575, 2576, 2577, 2578, 2579, 2580, 2581, 2588, 2589, 2590
2591, 2592, 2593, 2594, 2595, 2606, 2607, 2608, 2609, 2610, 2611, 2612, 2613, 2614, 2615, 2616
2617, 2618, 2619, 2620, 2621, 2622, 2623, 2624, 2625, 2626, 2639, 2640, 2641, 2642, 2655, 2656
2657, 2658, 2671, 2672, 2673, 2688, 2689, 2690, 2703, 2704, 2722, 2735, 2754, 2767, 2786, 2799
2818, 2831, 2850, 2863, 2882, 2895, 2913, 2914, 2927, 2928, 2945, 2946, 2959, 2960, 2961, 2976
2977, 2978, 2991, 2992, 2993, 2994, 3007, 3008, 3009, 3010, 3011, 3022, 3023, 3024, 3025, 3026
3027, 3028, 3029, 3030, 3031, 3032, 3033, 3034, 3035, 3036, 3037, 3038, 3039, 3040, 3041, 3042
3043, 3044, 3053, 3054, 3055, 3056, 3057, 3058, 3059, 3060, 3061, 3068, 3069, 3070, 3071, 3072
3073, 3074, 3087, 3088, 3089, 3090, 3103, 3104, 3105, 3106, 3107, 3118, 3119, 3120, 3121, 3122
3135, 3136, 3154, 3167, 3506, 3519, 3521, 3522, 3523, 3534, 3535, 3536, 3537, 3538, 3551, 3552
3553, 3554, 3567, 3568, 3569, 3570, 3583, 3584, 3585, 3586, 3599, 3600, 3601, 3602, 3615, 3616
3617, 3618, 3631, 3632, 3633, 3634, 3635, 3646, 3647, 3648, 3650, 3663, 4002, 4015, 4033, 4034
4047, 4048, 4049, 4050, 4051, 4062, 4063, 4064, 4065, 4066, 4079, 4080, 4081, 4082, 4095, 4096
4097, 4098, 4111, 4112, 4113, 4114, 4127, 4128, 4129, 4130, 4143, 4144, 4145, 4146, 4147, 4158
4159, 4160, 4162, 4175, 4514, 4527, 4545, 4546, 4559, 4560, 4561, 4562, 4563, 4574, 4575, 4576
4577, 4578, 4591, 4592, 4593, 4594, 4607, 4608, 4609, 4610, 4623, 4624, 4625, 4626, 4639, 4640
4641, 4642, 4643, 4654, 4655, 4656, 4657, 4658, 4671, 4672, 4690, 4703, 5042, 5055, 5057, 5058
5059, 5070, 5071, 5072, 5073, 5074, 5087, 5088, 5089, 5090, 5103, 5104, 5105, 5106, 5119, 5120
5121, 5122, 5123, 5124, 5133, 5134, 5135, 5136, 5137, 5138, 5139, 5140, 5141, 5148, 5149, 5150
5151, 5152, 5153, 5154, 5155, 5166, 5167, 5168, 5169, 5170, 5171, 5172, 5173, 5174, 5175, 5176
5177, 5178, 5179, 5180, 5181, 5182, 5183, 5184, 5185, 5186, 5199, 5200, 5201, 5202, 5215, 5216
5217, 5218, 5231, 5232, 5233, 5248, 5249, 5250, 5263, 5264, 5282, 5295, 5314, 5327, 5346, 5359
5378, 5391, 5410, 5423, 5442, 5455, 5473, 5474, 5487, 5488, 5505, 5506, 5519, 5520, 5521, 5536
5537, 5538, 5551, 5552, 5553, 5554, 5567, 5568, 5569, 5570, 5571, 5582, 5583, 5584, 5585, 5586
5587, 5588, 5589, 5590, 5591, 5592, 5593, 5594, 5595, 5596, 5597, 5598, 5599, 5600, 5601, 5602
5603, 5604, 5613, 5614, 5615, 5616, 5617, 5618, 5619, 5620, 5621, 5628, 5629, 5630, 5631, 5632
5633, 5634, 5635, 5636, 5637, 5644, 5645, 5646, 5647, 5648, 5649, 5650, 5651, 5652, 5661, 5662
5663, 5664, 5665, 5666, 5667, 5668, 5669, 5670, 5671, 5672, 5673, 5674, 5675, 5676, 5677, 5678
5679, 5680, 5681, 5682, 5683, 5694, 5695, 5696, 5697, 5698, 5711, 5712, 5713, 5714, 5727, 5728
5729, 5744, 5745, 5746, 5759, 5760, 5777, 5778, 5791, 5792, 5810, 5823, 5842, 5855, 5874, 5887
5906, 5919, 5938, 5951, 5970, 5983, 6001, 6002, 6015, 6016, 6017, 6032, 6033, 6034, 6047, 6048
6049, 6050, 6063, 6064, 6065, 6066, 6079, 6080, 6081, 6082, 6083, 6084, 6085, 6086, 6087, 6088
6089, 6090, 6091, 6092, 6093, 6094, 6095, 6096, 6097, 6098, 6099, 6110, 6111, 6112, 6113, 6114
6115, 6116, 6117, 6124, 6125, 6126, 6127, 6128, 6129, 6130, 6131, 6132, 6141, 6142, 6143, 6144
6145, 6146, 6147, 6148, 6149, 6150, 6151, 6152, 6153, 6154, 6155, 6156, 6157, 6158, 6159, 6160
6161, 6162, 6163, 6164, 6165, 6166, 6167, 6168, 6169, 6170, 6171, 6172, 6173, 6174, 6175, 6176
6177, 6178, 6179, 6180, 6181, 6182, 6183, 6184, 6185, 6186, 6187, 6188, 6189, 6190, 6191, 6192
6193, 6194, 6195, 6196, 6197, 6198, 6199, 6200, 6201, 6202, 6203, 6204, 6205, 6206, 6207, 6208
6209, 6210, 6211, 6212, 6213, 6220, 6221, 6222, 6223, 6224, 6225, 6226, 6227, 6228, 6229, 6236
6237, 6238, 6239, 6240, 6241, 6242, 6243, 6244, 6253, 6254, 6255, 6256, 6257, 6258, 6259, 6260
6269, 6270, 6271, 6272, 6273, 6274, 6275, 6286, 6287, 6288, 6289, 6290, 6291, 6302, 6303, 6304
6305, 6306, 6319, 6320, 6321, 6322, 6335, 6336, 6337, 6338, 6351, 6352, 6353, 6354, 6367, 6368
6369, 6370, 6383, 6384, 6385, 6386, 6399, 6400, 6401, 6402, 6415, 6416, 6417, 6418, 6431, 6432
6433, 6434, 6447, 6448, 6449, 6450, 6463, 6464, 6465, 6466, 6479, 6480, 6481, 6482, 6495, 6496
6497, 6498, 6499, 6510, 6511, 6512, 6513, 6514, 6515, 6526, 6527, 6528, 6529, 6530, 6531, 6532
6541, 6542, 6543, 6544, 6545, 6546, 6547, 6548, 6557, 6558, 6559, 6560, 6561, 6562, 6563, 6564
6565, 6572, 6573, 6574, 6575, 6576, 6577, 6578, 6579, 6580, 6581, 6588, 6589, 6590, 6591, 6592
6593, 6594, 6595, 6596, 6597, 6598, 6599, 6600, 6601, 6602, 6603, 6604, 6605, 6606, 6607, 6608
6609, 6610, 6611, 6612, 6613, 6614, 6615, 6616, 6617, 6618, 6619, 6620, 6621, 6622, 6623, 6624
6625, 6626, 6627, 6628, 6629, 6630, 6631, 6632, 6633, 6634, 6635, 6636, 6637, 6638, 6639, 6640
6641, 6642, 6643, 6644, 6645, 6646, 6647, 6648, 6649, 6650, 6651, 6652, 6653, 6654, 6655, 6656
6657, 6658, 6659, 6660, 6661, 6662, 6663, 6664, 6665, 6666, 6667, 6668, 6669, 6670, 6671, 6672
6673, 6674, 6675, 6676, 6677, 6678, 6679, 6680, 6681, 6682, 6683, 6684, 6685, 6686, 6687, 6688
6689, 6690, 6691, 6692, 6693, 6694, 6695, 6696, 6697, 6698, 6699, 6700, 6701, 6702, 6703, 6704
6705, 6706, 6707, 6708, 6709, 6710, 6711, 6712, 6713, 6714, 6715, 6716, 6717, 6718, 6719, 6720
6721, 6722, 6723, 6724, 6725, 6732, 6733, 6734, 6735, 6736, 6737, 6738, 6739, 6740, 6741, 6748
6749, 6750, 6751, 6752, 6753, 6754, 6755, 6756, 6765, 6766, 6767, 6768, 6769, 6770, 6771, 6772
6781, 6782, 6783, 6784, 6785, 6786, 6787, 6798, 6799, 6800, 6801, 6802, 6803, 6814, 6815, 6816
6817, 6818, 6831, 6832, 6833, 6834, 6847, 6848, 6849, 6850, 6863, 6864, 6865, 6866, 6879, 6880
6881, 6882, 6895, 6896, 6897, 6898, 6911, 6912, 6913, 6914, 6927, 6928, 6929, 6930, 6943, 6944
6945, 6946, 6959, 6960, 6961, 6962, 6975, 6976, 6977, 6978, 6991, 6992, 6993, 6994, 7007, 7008
7009, 7010, 7011, 7022, 7023, 7024, 7025, 7026, 7027, 7038, 7039, 7040, 7041, 7042, 7043, 7044
7053, 7054, 7055, 7056, 7057, 7058, 7059, 7060, 7069, 7070, 7071, 7072, 7073, 7074, 7075, 7076
7077, 7084, 7085, 7086, 7087, 7088, 7089, 7090, 7091, 7092, 7093, 7100, 7101, 7102, 7103, 7104
7105, 7106, 7107, 7108, 7109, 7110, 7111, 7112, 7113, 7114, 7115, 7116, 7117, 7118, 7119, 7120
7121, 7122, 7123, 7124, 7125, 7126, 7127, 7128, 7129, 7130, 7131, 7132, 7133, 7134, 7135, 7136
7137, 7138, 7139, 7140, 7141, 7142, 7143, 7144, 7145, 7146, 7147, 7148, 7149, 7150, 7151, 7152
7153, 7154, 7155, 7156, 7157, 7158, 7159, 7160, 7161, 7162, 7163, 7164, 7165, 7166, 7167, 7168
7169, 7170, 7171, 7172, 7173, 7174, 7175, 7176, 7177, 7178, 7179, 7180, 7181, 7182, 7183, 7184
7185, 7186, 7187, 7188, 7189, 7190, 7191, 7192, 7193, 7194, 7195, 7196, 7197, 7198, 7199, 7200
7201, 7202, 7203, 7204, 7205, 7206, 7207, 7208, 7209, 7210, 7211, 7212, 7213, 7214, 7215, 7216
7217, 7218, 7219, 7220, 7221, 7222, 7223, 7224, 7225, 7226, 7227, 7228, 7229, 7230, 7231, 7232
7233, 7234, 7235, 7236, 7237, 7238, 7239, 7240, 7241, 7242, 7243, 7244, 7245, 7246, 7247, 7248
7249, 7250, 7251, 7252, 7253, 7254, 7255, 7256, 7257, 7258, 7259, 7260, 7261, 7262, 7263, 7264
7265, 7266, 7267, 7268, 7269, 7270, 7271, 7272, 7273, 7274, 7275, 7276, 7277, 7278, 7279, 7280
7281, 7282, 7283, 7284, 7285, 7286, 7287, 7288, 7289, 7290, 7291, 7292, 7293, 7294, 7295, 7296
7297, 7298, 7299, 7300, 7301, 7302, 7303, 7304, 7305, 7306, 7307, 7308, 7309, 7310, 7311, 7312
7313, 7314, 7315, 7316, 7317, 7318, 7319, 7320, 7321, 7322, 7323, 7324, 7325, 7326, 7327, 7328
7329, 7330, 7331, 7332, 7333, 7334, 7335, 7336, 7337, 7338, 7339, 7340, 7341, 7342, 7343, 7344
7345, 7346, 7347, 7348, 7349, 7350, 7351, 7352, 7353, 7354, 7355, 7356, 7357, 7358, 7359, 7360
7361, 7362, 7363, 7364, 7365, 7366, 7367, 7370, 7371, 7372, 7373, 7374, 7375, 7376, 7377, 7378
7379, 7380, 7381, 7382, 7383, 7386, 7387, 7388, 7389, 7390, 7391, 7392, 7393, 7394, 7395, 7396
7397, 7398, 7403, 7404, 7405, 7406, 7407, 7408, 7409, 7410, 7411, 7412, 7413, 7414, 7419, 7420
7421, 7422, 7423, 7424, 7425, 7426, 7427, 7428, 7429, 7430, 7435, 7436, 7437, 7438, 7439, 7440
7441, 7442, 7443, 7444, 7445, 7446, 7451, 7452, 7453, 7454, 7455, 7456, 7457, 7458, 7459, 7460
7461, 7462, 7463, 7466, 7467, 7468, 7469, 7470, 7471, 7472, 7473, 7474, 7475, 7476, 7477, 7478
7479, 7482, 7483, 7484, 7485, 7486, 7487, 7488, 7489, 7490, 7491, 7492, 7493, 7494, 7495, 7496
7497, 7498, 7499, 7500, 7501, 7502, 7503, 7504, 7505, 7506, 7507, 7508, 7509, 7510, 7511, 7512
7513, 7514, 7515, 7516, 7517, 7518, 7519, 7520, 7521, 7522, 7523, 7524, 7525, 7526, 7527, 7528
7529, 7530, 7531, 7532, 7533, 7534, 7535, 7536, 7537, 7538, 7539, 7540, 7541, 7542, 7543, 7544
7545, 7546, 7547, 7548, 7549, 7550, 7551, 7552, 7553, 7554, 7555, 7556, 7557, 7558, 7559, 7560
7561, 7562, 7563, 7564, 7565, 7566, 7567, 7568, 7569, 7570, 7571, 7572, 7573, 7574, 7575, 7576
7577, 7578, 7579, 7580, 7581, 7582, 7583, 7584, 7585, 7586, 7587, 7588, 7589, 7590, 7591, 7592
7593, 7594, 7595, 7596, 7597, 7598, 7599, 7600, 7601, 7602, 7603, 7604, 7605, 7606, 7607, 7608
7609, 7610, 7611, 7612, 7613, 7614, 7615, 7616, 7617, 7618, 7619, 7620, 7621, 7622, 7623, 7624
7625, 7626, 7627, 7628, 7629, 7630, 7631, 7632, 7633, 7634, 7635, 7636, 7637, 7638, 7639, 7640
7641, 7642, 7643, 7644, 7645, 7646, 7647, 7648, 7649, 7650, 7651, 7652, 7653, 7654, 7655, 7656
7657, 7658, 7659, 7660, 7661, 7662, 7663, 7664, 7665, 7666, 7667, 7668, 7669, 7670, 7671, 7672
7673, 7674, 7675, 7676, 7677, 7678, 7679, 7680, 7681, 7682, 7683, 7684, 7685, 7686, 7687, 7688
7689, 7690, 7691, 7692, 7693, 7694, 7695, 7696, 7697, 7698, 7699, 7700, 7701, 7702, 7703, 7704
7705, 7706, 7707, 7708, 7709, 7710, 7711, 7712, 7713, 7714, 7715, 7716, 7717, 7718, 7719, 7720
7721, 7722, 7723, 7724, 7725, 7726, 7727, 7728, 7729, 7730, 7731, 7732, 7733, 7734, 7735, 7736
7737, 7738, 7739, 7740, 7741, 7742, 7743, 7744, 7745, 7746, 7747, 7748, 7749, 7750, 7751, 7752
7753, 7754, 7755, 7756, 7757, 7758, 7759, 7760, 7761, 7762, 7763, 7764, 7765, 7766, 7767, 7768
7769, 7770, 7771, 7772, 7773, 7774, 7775, 7776, 7777, 7778, 7779, 7780, 7781, 7782, 7783, 7784
7785, 7786, 7787, 7788, 7789, 7790, 7791, 7792, 7793, 7794, 7795, 7796, 7797, 7798, 7799, 7800
7801, 7802, 7803, 7804, 7805, 7806, 7807, 7808, 7809, 7810, 7811, 7812, 7813, 7814, 7815, 7816
7817, 7818, 7819, 7820, 7821, 7822, 7823, 7824, 7825, 7826, 7827, 7828, 7829, 7830, 7831, 7832
7833, 7834, 7835, 7836, 7837, 7838, 7839, 7840, 7841, 7842, 7843, 7844, 7845, 7846, 7847, 7848
7849, 7850, 7851, 7852, 7853, 7854, 7855, 7856, 7857, 7858, 7859, 7860, 7861, 7862, 7863, 7864
7865, 7866, 7867, 7868, 7869, 7870, 7871, 7872, 7873, 7874, 7875, 7876, 7877, 7878, 7879, 7882
7883, 7884, 7885, 7886, 7887, 7888, 7889, 7890, 7891, 7892, 7893, 7894, 7895, 7898, 7899, 7900
7901, 7902, 7903, 7904, 7905, 7906, 7907, 7908, 7909, 7910, 7915, 7916, 7917, 7918, 7919, 7920
7921, 7922, 7923, 7924, 7925, 7926, 7931, 7932, 7933, 7934, 7935, 7936, 7937, 7938, 7939, 7940
7941, 7942, 7947, 7948, 7949, 7950, 7951, 7952, 7953, 7954, 7955, 7956, 7957, 7958, 7963, 7964
7965, 7966, 7967, 7968, 7969, 7970, 7971, 7972, 7973, 7974, 7975, 7978, 7979, 7980, 7981, 7982
7983, 7984, 7985, 7986, 7987, 7988, 7989, 7990, 7991, 7994, 7995, 7996, 7997, 7998, 7999, 8000
8001, 8002, 8003, 8004, 8005, 8006, 8007, 8008, 8009, 8010, 8011, 8012, 8013, 8014, 8015, 8016
8017, 8018, 8019, 8020, 8021, 8022, 8023, 8024, 8025, 8026, 8027, 8028, 8029, 8030, 8031, 8032
8033, 8034, 8035, 8036, 8037, 8038, 8039, 8040, 8041, 8042, 8043, 8044, 8045, 8046, 8047, 8048
8049, 8050, 8051, 8052, 8053, 8054, 8055, 8056, 8057, 8058, 8059, 8060, 8061, 8062, 8063, 8064
8065, 8066, 8067, 8068, 8069, 8070, 8071, 8072, 8073, 8074, 8075, 8076, 8077, 8078, 8079, 8080
8081, 8082, 8083, 8084, 8085, 8086, 8087, 8088, 8089, 8090, 8091, 8092, 8093, 8094, 8095, 8096
8097, 8098, 8099, 8100, 8101, 8102, 8103, 8104, 8105, 8106, 8107, 8108, 8109, 8110, 8111, 8112
8113, 8114, 8115, 8116, 8117, 8118, 8119, 8120, 8121, 8122, 8123, 8124, 8125, 8126, 8127, 8128
8129, 8130, 8131, 8132, 8133, 8134, 8135, 8136, 8137, 8138, 8139, 8140, 8141, 8142, 8143, 8144
8145, 8146, 8147, 8148, 8149, 8150, 8151, 8152, 8153, 8154, 8155, 8156, 8157, 8158, 8159, 8160
8161, 8162, 8163, 8164, 8165, 8166, 8167, 8168, 8169, 8170, 8171, 8172, 8173, 8174, 8175, 8176
8177, 8178, 8179, 8180, 8181, 8182, 8183, 8184, 8185, 8186, 8187, 8188, 8189, 8190, 8191, 8192
*ElSet, ElSet=Yarn0
200, 201, 231, 232, 233, 234, 263, 264, 265, 266, 296, 297, 1094, 1095, 1096, 1097
1098, 1099, 1125, 1126, 1127, 1128, 1129, 1130, 1131, 1132, 1156, 1157, 1158, 1159, 1160, 1161
1162, 1163, 1164, 1165, 1187, 1188, 1189, 1190, 1191, 1192, 1193, 1194, 1195, 1196, 1197, 1198
1219, 1220, 1221, 1222, 1223, 1224, 1225, 1226, 1227, 1228, 1229, 1230, 1251, 1252, 1253, 1254
1255, 1256, 1257, 1258, 1259, 1260, 1261, 1262, 1283, 1284, 1285, 1286, 1287, 1288, 1289, 1290
1291, 1292, 1293, 1294, 1315, 1316, 1317, 1318, 1319, 1320, 1321, 1322, 1323, 1324, 1325, 1326
1347, 1348, 1349, 1350, 1351, 1352, 1353, 1354, 1355, 1356, 1357, 1358, 1380, 1381, 1382, 1383
1384, 1385, 1386, 1387, 1388, 1389, 1413, 1414, 1415, 1416, 1417, 1418, 1419, 1420, 1446, 1447
1448, 1449, 1450, 1451, 2115, 2116, 2117, 2118, 2119, 2120, 2121, 2122, 2123, 2124, 2125, 2126
2146, 2147, 2148, 2149, 2150, 2151, 2152, 2153, 2154, 2155, 2156, 2157, 2158, 2159, 2177, 2178
2179, 2180, 2181, 2182, 2183, 2184, 2185, 2186, 2187, 2188, 2189, 2190, 2191, 2192, 2209, 2210
2211, 2212, 2213, 2214, 2215, 2216, 2217, 2218, 2219, 2220, 2221, 2222, 2223, 2224, 2225, 2240
2241, 2242, 2243, 2244, 2245, 2246, 2247, 2248, 2249, 2250, 2251, 2252, 2253, 2254, 2255, 2256
2257, 2272, 2273, 2274, 2275, 2276, 2277, 2278, 2279, 2280, 2281, 2282, 2283, 2284, 2285, 2286
2287, 2288, 2289, 2304, 2305, 2306, 2307, 2308, 2309, 2310, 2311, 2312, 2313, 2314, 2315, 2316
2317, 2318, 2319, 2320, 2321, 2336, 2337, 2338, 2339, 2340, 2341, 2342, 2343, 2344, 2345, 2346
2347, 2348, 2349, 2350, 2351, 2352, 2353, 2368, 2369, 2370, 2371, 2372, 2373, 2374, 2375, 2376
2377, 2378, 2379, 2380, 2381, 2382, 2383, 2384, 2385, 2400, 2401, 2402, 2403, 2404, 2405, 2406
2407, 2408, 2409, 2410, 2411, 2412, 2413, 2414, 2415, 2416, 2434, 2435, 2436, 2437, 2438, 2439
2440, 2441, 2442, 2443, 2444, 2445, 2446, 2447, 2467, 2468, 2469, 2470, 2471, 2472, 2473, 2474
2475, 2476, 2477, 2478, 3137, 3138, 3139, 3140, 3149, 3150, 3151, 3152, 3153, 3168, 3169, 3170
3171, 3172, 3173, 3174, 3179, 3180, 3181, 3182, 3183, 3184, 3185, 3186, 3199, 3200, 3201, 3202
3203, 3204, 3205, 3206, 3207, 3208, 3209, 3210, 3211, 3212, 3213, 3214, 3215, 3216, 3217, 3218
3219, 3230, 3231, 3232, 3233, 3234, 3235, 3236, 3237, 3238, 3239, 3240, 3241, 3242, 3243, 3244
3245, 3246, 3247, 3248, 3249, 3250, 3251, 3262, 3263, 3264, 3265, 3266, 3267, 3268, 3269, 3270
3271, 3272, 3273, 3274, 3275, 3276, 3277, 3278, 3279, 3280, 3281, 3282, 3283, 3284, 3293, 3294
3295, 3296, 3297, 3298, 3299, 3300, 3301, 3302, 3303, 3304, 3305, 3306, 3307, 3308, 3309, 3310
3311, 3312, 3313, 3314, 3315, 3316, 3325, 3326, 3327, 3328, 3329, 3330, 3331, 3332, 3333, 3334
3335, 3336, 3337, 3338, 3339, 3340, 3341, 3342, 3343, 3344, 3345, 3346, 3347, 3348, 3357, 3358
3359, 3360, 3361, 3362, 3363, 3364, 3365, 3366, 3367, 3368, 3369, 3370, 3371, 3372, 3373, 3374
3375, 3376, 3377, 3378, 3379, 3380, 3389, 3390, 3391, 3392, 3393, 3394, 3395, 3396, 3397, 3398
3399, 3400, 3401, 3402, 3403, 3404, 3405, 3406, 3407, 3408, 3409, 3410, 3411, 3422, 3423, 3424
3425, 3426, 3427, 3428, 3429, 3430, 3431, 3432, 3433, 3434, 3435, 3436, 3437, 3438, 3439, 3440
3441, 3442, 3443, 3454, 3455, 3456, 3457, 3458, 3459, 3460, 3461, 3462, 3467, 3468, 3469, 3470
3471, 3472, 3473, 3474, 3487, 3488, 3489, 3490, 3491, 3492, 3501, 3502, 3503, 3504, 3505, 3520
4161, 4176, 4177, 4178, 4179, 4180, 4189, 4190, 4191, 4192, 4193, 4194, 4207, 4208, 4209, 4210
4211, 4212, 4213, 4214, 4219, 4220, 4221, 4222, 4223, 4224, 4225, 4226, 4227, 4238, 4239, 4240
4241, 4242, 4243, 4244, 4245, 4246, 4247, 4248, 4249, 4250, 4251, 4252, 4253, 4254, 4255, 4256
4257, 4258, 4259, 4270, 4271, 4272, 4273, 4274, 4275, 4276, 4277, 4278, 4279, 4280, 4281, 4282
4283, 4284, 4285, 4286, 4287, 4288, 4289, 4290, 4291, 4292, 4301, 4302, 4303, 4304, 4305, 4306
4307, 4308, 4309, 4310, 4311, 4312, 4313, 4314, 4315, 4316, 4317, 4318, 4319, 4320, 4321, 4322
4323, 4324, 4333, 4334, 4335, 4336, 4337, 4338, 4339, 4340, 4341, 4342, 4343, 4344, 4345, 4346
4347, 4348, 4349, 4350, 4351, 4352, 4353, 4354, 4355, 4356, 4365, 4366, 4367, 4368, 4369, 4370
4371, 4372, 4373, 4374, 4375, 4376, 4377, 4378, 4379, 4380, 4381, 4382, 4383, 4384, 4385, 4386
4387, 4388, 4397, 4398, 4399, 4400, 4401, 4402, 4403, 4404, 4405, 4406, 4407, 4408, 4409, 4410
4411, 4412, 4413, 4414, 4415, 4416, 4417, 4418, 4419, 4430, 4431, 4432, 4433, 4434, 4435, 4436
4437, 4438, 4439, 4440, 4441, 4442, 4443, 4444, 4445, 4446, 4447, 4448, 4449, 4450, 4451, 4462
4463, 4464, 4465, 4466, 4467, 4468, 4469, 4470, 4471, 4472, 4473, 4474, 4475, 4476, 4477, 4478
4479, 4480, 4481, 4482, 4495, 4496, 4497, 4498, 4499, 4500, 4501, 4502, 4507, 4508, 4509, 4510
4511, 4512, 4513, 4528, 4529, 4530, 4531, 4532, 4541, 4542, 4543, 4544, 5203, 5204, 5205, 5206
5207, 5208, 5209, 5210, 5211, 5212, 5213, 5214, 5234, 5235, 5236, 5237, 5238, 5239, 5240, 5241
5242, 5243, 5244, 5245, 5246, 5247, 5265, 5266, 5267, 5268, 5269, 5270, 5271, 5272, 5273, 5274
5275, 5276, 5277, 5278, 5279, 5280, 5281, 5296, 5297, 5298, 5299, 5300, 5301, 5302, 5303, 5304
5305, 5306, 5307, 5308, 5309, 5310, 5311, 5312, 5313, 5328, 5329, 5330, 5331, 5332, 5333, 5334
5335, 5336, 5337, 5338, 5339, 5340, 5341, 5342, 5343, 5344, 5345, 5360, 5361, 5362, 5363, 5364
5365, 5366, 5367, 5368, 5369, 5370, 5371, 5372, 5373, 5374, 5375, 5376, 5377, 5392, 5393, 5394
5395, 5396, 5397, 5398, 5399, 5400, 5401, 5402, 5403, 5404, 5405, 5406, 5407, 5408, 5409, 5424
5425, 5426, 5427, 5428, 5429, 5430, 5431, 5432, 5433, 5434, 5435, 5436, 5437, 5438, 5439, 5440
5441, 5456, 5457, 5458, 5459, 5460, 5461, 5462, 5463, 5464, 5465, 5466, 5467, 5468, 5469, 5470
5471, 5472, 5489, 5490, 5491, 5492, 5493, 5494, 5495, 5496, 5497, 5498, 5499, 5500, 5501, 5502
5503, 5504, 5522, 5523, 5524, 5525, 5526, 5527, 5528, 5529, 5530, 5531, 5532, 5533, 5534, 5535
5555, 5556, 5557, 5558, 5559, 5560, 5561, 5562, 5563, 5564, 5565, 5566, 6230, 6231, 6232, 6233
6234, 6235, 6261, 6262, 6263, 6264, 6265, 6266, 6267, 6268, 6292, 6293, 6294, 6295, 6296, 6297
6298, 6299, 6300, 6301, 6323, 6324, 6325, 6326, 6327, 6328, 6329, 6330, 6331, 6332, 6333, 6334
6355, 6356, 6357, 6358, 6359, 6360, 6361, 6362, 6363, 6364, 6365, 6366, 6387, 6388, 6389, 6390
6391, 6392, 6393, 6394, 6395, 6396, 6397, 6398, 6419, 6420, 6421, 6422, 6423, 6424, 6425, 6426
6427, 6428, 6429, 6430, 6451, 6452, 6453, 6454, 6455, 6456, 6457, 6458, 6459, 6460, 6461, 6462
6483, 6484, 6485, 6486, 6487, 6488, 6489, 6490, 6491, 6492, 6493, 6494, 6516, 6517, 6518, 6519
6520, 6521, 6522, 6523, 6524, 6525, 6549, 6550, 6551, 6552, 6553, 6554, 6555, 6556, 6582, 6583
6584, 6585, 6586, 6587, 7384, 7385, 7415, 7416, 7417, 7418, 7447, 7448, 7449, 7450, 7480, 7481
*ElSet, ElSet=Yarn1
728, 729, 759, 760, 761, 762, 791, 792, 793, 794, 824, 825, 1622, 1623, 1624, 1625
1626, 1627, 1653, 1654, 1655, 1656, 1657, 1658, 1659, 1660, 1684, 1685, 1686, 1687, 1688, 1689
1690, 1691, 1692, 1693, 1715, 1716, 1717, 1718, 1719, 1720, 1721, 1722, 1723, 1724, 1725, 1726
1747, 1748, 1749, 1750, 1751, 1752, 1753, 1754, 1755, 1756, 1757, 1758, 1779, 1780, 1781, 1782
1783, 1784, 1785, 1786, 1787, 1788, 1789, 1790, 1811, 1812, 1813, 1814, 1815, 1816, 1817, 1818
1819, 1820, 1821, 1822, 1843, 1844, 1845, 1846, 1847, 1848, 1849, 1850, 1851, 1852, 1853, 1854
1875, 1876, 1877, 1878, 1879, 1880, 1881, 1882, 1883, 1884, 1885, 1886, 1908, 1909, 1910, 1911
1912, 1913, 1914, 1915, 1916, 1917, 1941, 1942, 1943, 1944, 1945, 1946, 1947, 1948, 1974, 1975
1976, 1977, 1978, 1979, 2643, 2644, 2645, 2646, 2647, 2648, 2649, 2650, 2651, 2652, 2653, 2654
2674, 2675, 2676, 2677, 2678, 2679, 2680, 2681, 2682, 2683, 2684, 2685, 2686, 2687, 2705, 2706
2707, 2708, 2709, 2710, 2711, 2712, 2713, 2714, 2715, 2716, 2717, 2718, 2719, 2720, 2721, 2736
2737, 2738, 2739, 2740, 2741, 2742, 2743, 2744, 2745, 2746, 2747, 2748, 2749, 2750, 2751, 2752
2753, 2768, 2769, 2770, 2771, 2772, 2773, 2774, 2775, 2776, 2777, 2778, 2779, 2780, 2781, 2782
2783, 2784, 2785, 2800, 2801, 2802, 2803, 2804, 2805, 2806, 2807, 2808, 2809, 2810, 2811, 2812
2813, 2814, 2815, 2816, 2817, 2832, 2833, 2834, 2835, 2836, 2837, 2838, 2839, 2840, 2841, 2842
2843, 2844, 2845, 2846, 2847, 2848, 2849, 2864, 2865, 2866, 2867, 2868, 2869, 2870, 2871, 2872
2873, 2874, 2875, 2876, 2877, 2878, 2879, 2880, 2881, 2896, 2897, 2898, 2899, 2900, 2901, 2902
2903, 2904, 2905, 2906, 2907, 2908, 2909, 2910, 2911, 2912, 2929, 2930, 2931, 2932, 2933, 2934
2935, 2936, 2937, 2938, 2939, 2940, 2941, 2942, 2943, 2944, 2962, 2963, 2964, 2965, 2966, 2967
2968, 2969, 2970, 2971, 2972, 2973, 2974, 2975, 2995, 2996, 2997, 2998, 2999, 3000, 3001, 3002
3003, 3004, 3005, 3006, 3649, 3664, 3665, 3666, 3667, 3668, 3677, 3678, 3679, 3680, 3681, 3682
3695, 3696, 3697, 3698, 3699, 3700, 3701, 3702, 3707, 3708, 3709, 3710, 3711, 3712, 3713, 3714
3715, 3726, 3727, 3728, 3729, 3730, 3731, 3732, 3733, 3734, 3735, 3736, 3737, 3738, 3739, 3740
3741, 3742, 3743, 3744, 3745, 3746, 3747, 3758, 3759, 3760, 3761, 3762, 3763, 3764, 3765, 3766
3767, 3768, 3769, 3770, 3771, 3772, 3773, 3774, 3775, 3776, 3777, 3778, 3779, 3780, 3789, 3790
3791, 3792, 3793, 3794, 3795, 3796, 3797, 3798, 3799, 3800, 3801, 3802, 3803, 3804, 3805, 3806
3807, 3808, 3809, 3810, 3811, 3812, 3821, 3822, 3823, 3824, 3825, 3826, 3827, 3828, 3829, 3830
3831, 3832, 3833, 3834, 3835, 3836, 3837, 3838, 3839, 3840, 3841, 3842, 3843, 3844, 3853, 3854
3855, 3856, 3857, 3858, 3859, 3860, 3861, 3862, 3863, 3864, 3865, 3866, 3867, 3868, 3869, 3870
3871, 3872, 3873, 3874, 3875, 3876, 3885, 3886, 3887, 3888, 3889, 3890, 3891, 3892, 3893, 3894
3895, 3896, 3897, 3898, 3899, 3900, 3901, 3902, 3903, 3904, 3905, 3906, 3907, 3918, 3919, 3920
3921, 3922, 3923, 3924, 3925, 3926, 3927, 3928, 3929, 3930, 3931, 3932, 3933, 3934, 3935, 3936
3937, 3938, 3939, 3950, 3951, 3952, 3953, 3954, 3955, 3956, 3957, 3958, 3959, 3960, 3961, 3962
3963, 3964, 3965, 3966, 3967, 3968, 3969, 3970, 3983, 3984, 3985, 3986, 3987, 3988, 3989, 3990
3995, 3996, 3997, 3998, 3999, 4000, 4001, 4016, 4017, 4018, 4019, 4020, 4029, 4030, 4031, 4032
4673, 4674, 4675, 4676, 4685, 4686, 4687, 4688, 4689, 4704, 4705, 4706, 4707, 4708, 4709, 4710
4715, 4716, 4717, 4718, 4719, 4720, 4721, 4722, 4735, 4736, 4737, 4738, 4739, 4740, 4741, 4742
4743, 4744, 4745, 4746, 4747, 4748, 4749, 4750, 4751, 4752, 4753, 4754, 4755, 4766, 4767, 4768
4769, 4770, 4771, 4772, 4773, 4774, 4775, 4776, 4777, 4778, 4779, 4780, 4781, 4782, 4783, 4784
4785, 4786, 4787, 4798, 4799, 4800, 4801, 4802, 4803, 4804, 4805, 4806, 4807, 4808, 4809, 4810
4811, 4812, 4813, 4814, 4815, 4816, 4817, 4818, 4819, 4820, 4829, 4830, 4831, 4832, 4833, 4834
4835, 4836, 4837, 4838, 4839, 4840, 4841, 4842, 4843, 4844, 4845, 4846, 4847, 4848, 4849, 4850
4851, 4852, 4861, 4862, 4863, 4864, 4865, 4866, 4867, 4868, 4869, 4870, 4871, 4872, 4873, 4874
4875, 4876, 4877, 4878, 4879, 4880, 4881, 4882, 4883, 4884, 4893, 4894, 4895, 4896, 4897, 4898
4899, 4900, 4901, 4902, 4903, 4904, 4905, 4906, 4907, 4908, 4909, 4910, 4911, 4912, 4913, 4914
4915, 4916, 4925, 4926, 4927, 4928, 4929, 4930, 4931, 4932, 4933, 4934, 4935, 4936, 4937, 4938
4939, 4940, 4941, 4942, 4943, 4944, 4945, 4946, 4947, 4958, 4959, 4960, 4961, 4962, 4963, 4964
4965, 4966, 4967, 4968, 4969, 4970, 4971, 4972, 4973, 4974, 4975, 4976, 4977, 4978, 4979, 4990
4991, 4992, 4993, 4994, 4995, 4996, 4997, 4998, 5003, 5004, 5005, 5006, 5007, 5008, 5009, 5010
5023, 5024, 5025, 5026, 5027, 5028, 5037, 5038, 5039, 5040, 5041, 5056, 5699, 5700, 5701, 5702
5703, 5704, 5705, 5706, 5707, 5708, 5709, 5710, 5730, 5731, 5732, 5733, 5734, 5735, 5736, 5737
5738, 5739, 5740, 5741, 5742, 5743, 5761, 5762, 5763, 5764, 5765, 5766, 5767, 5768, 5769, 5770
5771, 5772, 5773, 5774, 5775, 5776, 5793, 5794, 5795, 5796, 5797, 5798, 5799, 5800, 5801, 5802
5803, 5804, 5805, 5806, 5807, 5808, 5809, 5824, 5825, 5826, 5827, 5828, 5829, 5830, 5831, 5832
5833, 5834, 5835, 5836, 5837, 5838, 5839, 5840, 5841, 5856, 5857, 5858, 5859, 5860, 5861, 5862
5863, 5864, 5865, 5866, 5867, 5868, 5869, 5870, 5871, 5872, 5873, 5888, 5889, 5890, 5891, 5892
5893, 5894, 5895, 5896, 5897, 5898, 5899, 5900, 5901, 5902, 5903, 5904, 5905, 5920, 5921, 5922
5923, 5924, 5925, 5926, 5927, 5928, 5929, 5930, 5931, 5932, 5933, 5934, 5935, 5936, 5937, 5952
5953, 5954, 5955, 5956, 5957, 5958, 5959, 5960, 5961, 5962, 5963, 5964, 5965, 5966, 5967, 5968
5969, 5984, 5985, 5986, 5987, 5988, 5989, 5990, 5991, 5992, 5993, 5994, 5995, 5996, 5997, 5998
5999, 6000, 6018, 6019, 6020, 6021, 6022, 6023, 6024, 6025, 6026, 6027, 6028, 6029, 6030, 6031
6051, 6052, 6053, 6054, 6055, 6056, 6057, 6058, 6059, 6060, 6061, 6062, 6726, 6727, 6728, 6729
6730, 6731, 6757, 6758, 6759, 6760, 6761, 6762, 6763, 6764, 6788, 6789, 6790, 6791, 6792, 6793
6794, 6795, 6796, 6797, 6819, 6820, 6821, 6822, 6823, 6824, 6825, 6826, 6827, 6828, 6829, 6830
6851, 6852, 6853, 6854, 6855, 6856, 6857, 6858, 6859, 6860, 6861, 6862, 6883, 6884, 6885, 6886
6887, 6888, 6889, 6890, 6891, 6892, 6893, 6894, 6915, 6916, 6917, 6918, 6919, 6920, 6921, 6922
6923, 6924, 6925, 6926, 6947, 6948, 6949, 6950, 6951, 6952, 6953, 6954, 6955, 6956, 6957, 6958
6979, 6980, 6981, 6982, 6983, 6984, 6985, 6986, 6987, 6988, 6989, 6990, 7012, 7013, 7014, 7015
7016, 7017, 7018, 7019, 7020, 7021, 7045, 7046, 7047, 7048, 7049, 7050, 7051, 7052, 7078, 7079
7080, 7081, 7082, 7083, 7880, 7881, 7911, 7912, 7913, 7914, 7943, 7944, 7945, 7946, 7976, 7977
*ElSet, ElSet=Yarn2
712, 713, 743, 744, 745, 746, 775, 776, 777, 778, 808, 809, 1606, 1607, 1608, 1609
1610, 1611, 1637, 1638, 1639, 1640, 1641, 1642, 1643, 1644, 1668, 1669, 1670, 1671, 1672, 1673
1674, 1675, 1676, 1677, 1699, 1700, 1701, 1702, 1703, 1704, 1705, 1706, 1707, 1708, 1709, 1710
1731, 1732, 1733, 1734, 1735, 1736, 1737, 1738, 1739, 1740, 1741, 1742, 1763, 1764, 1765, 1766
1767, 1768, 1769, 1770, 1771, 1772, 1773, 1774, 1795, 1796, 1797, 1798, 1799, 1800, 1801, 1802
1803, 1804, 1805, 1806, 1827, 1828, 1829, 1830, 1831, 1832, 1833, 1834, 1835, 1836, 1837, 1838
1859, 1860, 1861, 1862, 1863, 1864, 1865, 1866, 1867, 1868, 1869, 1870, 1892, 1893, 1894, 1895
1896, 1897, 1898, 1899, 1900, 1901, 1925, 1926, 1927, 1928, 1929, 1930, 1931, 1932, 1958, 1959
1960, 1961, 1962, 1963, 2054, 2055, 2056, 2057, 2058, 2059, 2534, 2535, 2536, 2537, 2538, 2539
2565, 2566, 2567, 2568, 2569, 2570, 2571, 2572, 2596, 2597, 2598, 2599, 2600, 2601, 2602, 2603
2604, 2605, 2627, 2628, 2629, 2630, 2631, 2632, 2633, 2634, 2635, 2636, 2637, 2638, 2659, 2660
2661, 2662, 2663, 2664, 2665, 2666, 2667, 2668, 2669, 2670, 2691, 2692, 2693, 2694, 2695, 2696
2697, 2698, 2699, 2700, 2701, 2702, 2723, 2724, 2725, 2726, 2727, 2728, 2729, 2730, 2731, 2732
2733, 2734, 2755, 2756, 2757, 2758, 2759, 2760, 2761, 2762, 2763, 2764, 2765, 2766, 2787, 2788
2789, 2790, 2791, 2792, 2793, 2794, 2795, 2796, 2797, 2798, 2819, 2820, 2821, 2822, 2823, 2824
2825, 2826, 2827, 2828, 2829, 2830, 2851, 2852, 2853, 2854, 2855, 2856, 2857, 2858, 2859, 2860
2861, 2862, 2883, 2884, 2885, 2886, 2887, 2888, 2889, 2890, 2891, 2892, 2893, 2894, 2915, 2916
2917, 2918, 2919, 2920, 2921, 2922, 2923, 2924, 2925, 2926, 2947, 2948, 2949, 2950, 2951, 2952
2953, 2954, 2955, 2956, 2957, 2958, 2979, 2980, 2981, 2982, 2983, 2984, 2985, 2986, 2987, 2988
2989, 2990, 3012, 3013, 3014, 3015, 3016, 3017, 3018, 3019, 3020, 3021, 3045, 3046, 3047, 3048
3049, 3050, 3051, 3052, 3075, 3076, 3077, 3078, 3079, 3080, 3081, 3082, 3083, 3084, 3085, 3086
3108, 3109, 3110, 3111, 3112, 3113, 3114, 3115, 3116, 3117, 3141, 3142, 3143, 3144, 3145, 3146
3147, 3148, 3175, 3176, 3177, 3178, 3463, 3464, 3465, 3466, 3493, 3494, 3495, 3496, 3497, 3498
3499, 3500, 3524, 3525, 3526, 3527, 3528, 3529, 3530, 3531, 3532, 3533, 3555, 3556, 3557, 3558
3559, 3560, 3561, 3562, 3563, 3564, 3565, 3566, 3587, 3588, 3589, 3590, 3591, 3592, 3593, 3594
3595, 3596, 3597, 3598, 3619, 3620, 3621, 3622, 3623, 3624, 3625, 3626, 3627, 3628, 3629, 3630
3651, 3652, 3653, 3654, 3655, 3656, 3657, 3658, 3659, 3660, 3661, 3662, 3683, 3684, 3685, 3686
3687, 3688, 3689, 3690, 3691, 3692, 3693, 3694, 3716, 3717, 3718, 3719, 3720, 3721, 3722, 3723
3724, 3725, 3748, 3749, 3750, 3751, 3752, 3753, 3754, 3755, 3756, 3757, 3781, 3782, 3783, 3784
3785, 3786, 3787, 3788, 3813, 3814, 3815, 3816, 3817, 3818, 3819, 3820, 3845, 3846, 3847, 3848
3849, 3850, 3851, 3852, 3877, 3878, 3879, 3880, 3881, 3882, 3883, 3884, 3908, 3909, 3910, 3911
3912, 3913, 3914, 3915, 3916, 3917, 3940, 3941, 3942, 3943, 3944, 3945, 3946, 3947, 3948, 3949
3971, 3972, 3973, 3974, 3975, 3976, 3977, 3978, 3979, 3980, 3981, 3982, 4003, 4004, 4005, 4006
4007, 4008, 4009, 4010, 4011, 4012, 4013, 4014, 4035, 4036, 4037, 4038, 4039, 4040, 4041, 4042
4043, 4044, 4045, 4046, 4067, 4068, 4069, 4070, 4071, 4072, 4073, 4074, 4075, 4076, 4077, 4078
4099, 4100, 4101, 4102, 4103, 4104, 4105, 4106, 4107, 4108, 4109, 4110, 4131, 4132, 4133, 4134
4135, 4136, 4137, 4138, 4139, 4140, 4141, 4142, 4163, 4164, 4165, 4166, 4167, 4168, 4169, 4170
4171, 4172, 4173, 4174, 4195, 4196, 4197, 4198, 4199, 4200, 4201, 4202, 4203, 4204, 4205, 4206
4228, 4229, 4230, 4231, 4232, 4233, 4234, 4235, 4236, 4237, 4260, 4261, 4262, 4263, 4264, 4265
4266, 4267, 4268, 4269, 4293, 4294, 4295, 4296, 4297, 4298, 4299, 4300, 4325, 4326, 4327, 4328
4329, 4330, 4331, 4332, 4357, 4358, 4359, 4360, 4361, 4362, 4363, 4364, 4389, 4390, 4391, 4392
4393, 4394, 4395, 4396, 4420, 4421, 4422, 4423, 4424, 4425, 4426, 4427, 4428, 4429, 4452, 4453
4454, 4455, 4456, 4457, 4458, 4459, 4460, 4461, 4483, 4484, 4485, 4486, 4487, 4488, 4489, 4490
4491, 4492, 4493, 4494, 4515, 4516, 4517, 4518, 4519, 4520, 4521, 4522, 4523, 4524, 4525, 4526
4547, 4548, 4549, 4550, 4551, 4552, 4553, 4554, 4555, 4556, 4557, 4558, 4579, 4580, 4581, 4582
4583, 4584, 4585, 4586, 4587, 4588, 4589, 4590, 4611, 4612, 4613, 4614, 4615, 4616, 4617, 4618
4619, 4620, 4621, 4622, 4644, 4645, 4646, 4647, 4648, 4649, 4650, 4651, 4652, 4653, 4677, 4678
4679, 4680, 4681, 4682, 4683, 4684, 4711, 4712, 4713, 4714, 4999, 5000, 5001, 5002, 5029, 5030
5031, 5032, 5033, 5034, 5035, 5036, 5060, 5061, 5062, 5063, 5064, 5065, 5066, 5067, 5068, 5069
5091, 5092, 5093, 5094, 5095, 5096, 5097, 5098, 5099, 5100, 5101, 5102, 5125, 5126, 5127, 5128
5129, 5130, 5131, 5132, 5156, 5157, 5158, 5159, 5160, 5161, 5162, 5163, 5164, 5165, 5187, 5188
5189, 5190, 5191, 5192, 5193, 5194, 5195, 5196, 5197, 5198, 5219, 5220, 5221, 5222, 5223, 5224
5225, 5226, 5227, 5228, 5229, 5230, 5251, 5252, 5253, 5254, 5255, 5256, 5257, 5258, 5259, 5260
5261, 5262, 5283, 5284, 5285, 5286, 5287, 5288, 5289, 5290, 5291, 5292, 5293, 5294, 5315, 5316
5317, 5318, 5319, 5320, 5321, 5322, 5323, 5324, 5325, 5326, 5347, 5348, 5349, 5350, 5351, 5352
5353, 5354, 5355, 5356, 5357, 5358, 5379, 5380, 5381, 5382, 5383, 5384, 5385, 5386, 5387, 5388
5389, 5390, 5411, 5412, 5413, 5414, 5415, 5416, 5417, 5418, 5419, 5420, 5421, 5422, 5443, 5444
5445, 5446, 5447, 5448, 5449, 5450, 5451, 5452, 5453, 5454, 5475, 5476, 5477, 5478, 5479, 5480
5481, 5482, 5483, 5484, 5485, 5486, 5507, 5508, 5509, 5510, 5511, 5512, 5513, 5514, 5515, 5516
5517, 5518, 5539, 5540, 5541, 5542, 5543, 5544, 5545, 5546, 5547, 5548, 5549, 5550, 5572, 5573
5574, 5575, 5576, 5577, 5578, 5579, 5580, 5581, 5605, 5606, 5607, 5608, 5609, 5610, 5611, 5612
5638, 5639, 5640, 5641, 5642, 5643, 6118, 6119, 6120, 6121, 6122, 6123, 6214, 6215, 6216, 6217
6218, 6219, 6245, 6246, 6247, 6248, 6249, 6250, 6251, 6252, 6276, 6277, 6278, 6279, 6280, 6281
6282, 6283, 6284, 6285, 6307, 6308, 6309, 6310, 6311, 6312, 6313, 6314, 6315, 6316, 6317, 6318
6339, 6340, 6341, 6342, 6343, 6344, 6345, 6346, 6347, 6348, 6349, 6350, 6371, 6372, 6373, 6374
6375, 6376, 6377, 6378, 6379, 6380, 6381, 6382, 6403, 6404, 6405, 6406, 6407, 6408, 6409, 6410
6411, 6412, 6413, 6414, 6435, 6436, 6437, 6438, 6439, 6440, 6441, 6442, 6443, 6444, 6445, 6446
6467, 6468, 6469, 6470, 6471, 6472, 6473, 6474, 6475, 6476, 6477, 6478, 6500, 6501, 6502, 6503
6504, 6505, 6506, 6507, 6508, 6509, 6533, 6534, 6535, 6536, 6537, 6538, 6539, 6540, 6566, 6567
6568, 6569, 6570, 6571, 7368, 7369, 7399, 7400, 7401, 7402, 7431, 7432, 7433, 7434, 7464, 7465
*ElSet, ElSet=Yarn3
216, 217, 247, 248, 249, 250, 279, 280, 281, 282, 312, 313, 1110, 1111, 1112, 1113
1114, 1115, 1141, 1142, 1143, 1144, 1145, 1146, 1147, 1148, 1172, 1173, 1174, 1175, 1176, 1177
1178, 1179, 1180, 1181, 1203, 1204, 1205, 1206, 1207, 1208, 1209, 1210, 1211, 1212, 1213, 1214
1235, 1236, 1237, 1238, 1239, 1240, 1241, 1242, 1243, 1244, 1245, 1246, 1267, 1268, 1269, 1270
1271, 1272, 1273, 1274, 1275, 1276, 1277, 1278, 1299, 1300, 1301, 1302, 1303, 1304, 1305, 1306
1307, 1308, 1309, 1310, 1331, 1332, 1333, 1334, 1335, 1336, 1337, 1338, 1339, 1340, 1341, 1342
1363, 1364, 1365, 1366, 1367, 1368, 1369, 1370, 1371, 1372, 1373, 1374, 1396, 1397, 1398, 1399
1400, 1401, 1402, 1403, 1404, 1405, 1429, 1430, 1431, 1432, 1433, 1434, 1435, 1436, 1462, 1463
1464, 1465, 1466, 1467, 2069, 2070, 2071, 2072, 2073, 2074, 2075, 2076, 2100, 2101, 2102, 2103
2104, 2105, 2106, 2107, 2108, 2109, 2131, 2132, 2133, 2134, 2135, 2136, 2137, 2138, 2139, 2140
2141, 2142, 2163, 2164, 2165, 2166, 2167, 2168, 2169, 2170, 2171, 2172, 2173, 2174, 2195, 2196
2197, 2198, 2199, 2200, 2201, 2202, 2203, 2204, 2205, 2206, 2227, 2228, 2229, 2230, 2231, 2232
2233, 2234, 2235, 2236, 2237, 2238, 2259, 2260, 2261, 2262, 2263, 2264, 2265, 2266, 2267, 2268
2269, 2270, 2291, 2292, 2293, 2294, 2295, 2296, 2297, 2298, 2299, 2300, 2301, 2302, 2323, 2324
2325, 2326, 2327, 2328, 2329, 2330, 2331, 2332, 2333, 2334, 2355, 2356, 2357, 2358, 2359, 2360
2361, 2362, 2363, 2364, 2365, 2366, 2387, 2388, 2389, 2390, 2391, 2392, 2393, 2394, 2395, 2396
2397, 2398, 2419, 2420, 2421, 2422, 2423, 2424, 2425, 2426, 2427, 2428, 2429, 2430, 2451, 2452
2453, 2454, 2455, 2456, 2457, 2458, 2459, 2460, 2461, 2462, 2483, 2484, 2485, 2486, 2487, 2488
2489, 2490, 2491, 2492, 2493, 2494, 2516, 2517, 2518, 2519, 2520, 2521, 2522, 2523, 2524, 2525
2549, 2550, 2551, 2552, 2553, 2554, 2555, 2556, 2582, 2583, 2584, 2585, 2586, 2587, 3062, 3063
3064, 3065, 3066, 3067, 3091, 3092, 3093, 3094, 3095, 3096, 3097, 3098, 3099, 3100, 3101, 3102
3123, 3124, 3125, 3126, 3127, 3128, 3129, 3130, 3131, 3132, 3133, 3134, 3155, 3156, 3157, 3158
3159, 3160, 3161, 3162, 3163, 3164, 3165, 3166, 3187, 3188, 3189, 3190, 3191, 3192, 3193, 3194
3195, 3196, 3197, 3198, 3220, 3221, 3222, 3223, 3224, 3225, 3226, 3227, 3228, 3229, 3252, 3253
3254, 3255, 3256, 3257, 3258, 3259, 3260, 3261, 3285, 3286, 3287, 3288, 3289, 3290, 3291, 3292
3317, 3318, 3319, 3320, 3321, 3322, 3323, 3324, 3349, 3350, 3351, 3352, 3353, 3354, 3355, 3356
3381, 3382, 3383, 3384, 3385, 3386, 3387, 3388, 3412, 3413, 3414, 3415, 3416, 3417, 3418, 3419
3420, 3421, 3444, 3445, 3446, 3447, 3448, 3449, 3450, 3451, 3452, 3453, 3475, 3476, 3477, 3478
3479, 3480, 3481, 3482, 3483, 3484, 3485, 3486, 3507, 3508, 3509, 3510, 3511, 3512, 3513, 3514
3515, 3516, 3517, 3518, 3539, 3540, 3541, 3542, 3543, 3544, 3545, 3546, 3547, 3548, 3549, 3550
3571, 3572, 3573, 3574, 3575, 3576, 3577, 3578, 3579, 3580, 3581, 3582, 3603, 3604, 3605, 3606
3607, 3608, 3609, 3610, 3611, 3612, 3613, 3614, 3636, 3637, 3638, 3639, 3640, 3641, 3642, 3643
3644, 3645, 3669, 3670, 3671, 3672, 3673, 3674, 3675, 3676, 3703, 3704, 3705, 3706, 3991, 3992
3993, 3994, 4021, 4022, 4023, 4024, 4025, 4026, 4027, 4028, 4052, 4053, 4054, 4055, 4056, 4057
4058, 4059, 4060, 4061, 4083, 4084, 4085, 4086, 4087, 4088, 4089, 4090, 4091, 4092, 4093, 4094
4115, 4116, 4117, 4118, 4119, 4120, 4121, 4122, 4123, 4124, 4125, 4126, 4148, 4149, 4150, 4151
4152, 4153, 4154, 4155, 4156, 4157, 4181, 4182, 4183, 4184, 4185, 4186, 4187, 4188, 4215, 4216
4217, 4218, 4503, 4504, 4505, 4506, 4533, 4534, 4535, 4536, 4537, 4538, 4539, 4540, 4564, 4565
4566, 4567, 4568, 4569, 4570, 4571, 4572, 4573, 4595, 4596, 4597, 4598, 4599, 4600, 4601, 4602
4603, 4604, 4605, 4606, 4627, 4628, 4629, 4630, 4631, 4632, 4633, 4634, 4635, 4636, 4637, 4638
4659, 4660, 4661, 4662, 4663, 4664, 4665, 4666, 4667, 4668, 4669, 4670, 4691, 4692, 4693, 4694
4695, 4696, 4697, 4698, 4699, 4700, 4701, 4702, 4723, 4724, 4725, 4726, 4727, 4728, 4729, 4730
4731, 4732, 4733, 4734, 4756, 4757, 4758, 4759, 4760, 4761, 4762, 4763, 4764, 4765, 4788, 4789
4790, 4791, 4792, 4793, 4794, 4795, 4796, 4797, 4821, 4822, 4823, 4824, 4825, 4826, 4827, 4828
4853, 4854, 4855, 4856, 4857, 4858, 4859, 4860, 4885, 4886, 4887, 4888, 4889, 4890, 4891, 4892
4917, 4918, 4919, 4920, 4921, 4922, 4923, 4924, 4948, 4949, 4950, 4951, 4952, 4953, 4954, 4955
4956, 4957, 4980, 4981, 4982, 4983, 4984, 4985, 4986, 4987, 4988, 4989, 5011, 5012, 5013, 5014
5015, 5016, 5017, 5018, 5019, 5020, 5021, 5022, 5043, 5044, 5045, 5046, 5047, 5048, 5049, 5050
5051, 5052, 5053, 5054, 5075, 5076, 5077, 5078, 5079, 5080, 5081, 5082, 5083, 5084, 5085, 5086
5107, 5108, 5109, 5110, 5111, 5112, 5113, 5114, 5115, 5116, 5117, 5118, 5142, 5143, 5144, 5145
5146, 5147, 5622, 5623, 5624, 5625, 5626, 5627, 5653, 5654, 5655, 5656, 5657, 5658, 5659, 5660
5684, 5685, 5686, 5687, 5688, 5689, 5690, 5691, 5692, 5693, 5715, 5716, 5717, 5718, 5719, 5720
5721, 5722, 5723, 5724, 5725, 5726, 5747, 5748, 5749, 5750, 5751, 5752, 5753, 5754, 5755, 5756
5757, 5758, 5779, 5780, 5781, 5782, 5783, 5784, 5785, 5786, 5787, 5788, 5789, 5790, 5811, 5812
5813, 5814, 5815, 5816, 5817, 5818, 5819, 5820, 5821, 5822, 5843, 5844, 5845, 5846, 5847, 5848
5849, 5850, 5851, 5852, 5853, 5854, 5875, 5876, 5877, 5878, 5879, 5880, 5881, 5882, 5883, 5884
5885, 5886, 5907, 5908, 5909, 5910, 5911, 5912, 5913, 5914, 5915, 5916, 5917, 5918, 5939, 5940
5941, 5942, 5943, 5944, 5945, 5946, 5947, 5948, 5949, 5950, 5971, 5972, 5973, 5974, 5975, 5976
5977, 5978, 5979, 5980, 5981, 5982, 6003, 6004, 6005, 6006, 6007, 6008, 6009, 6010, 6011, 6012
6013, 6014, 6035, 6036, 6037, 6038, 6039, 6040, 6041, 6042, 6043, 6044, 6045, 6046, 6067, 6068
6069, 6070, 6071, 6072, 6073, 6074, 6075, 6076, 6077, 6078, 6100, 6101, 6102, 6103, 6104, 6105
6106, 6107, 6108, 6109, 6133, 6134, 6135, 6136, 6137, 6138, 6139, 6140, 6742, 6743, 6744, 6745
6746, 6747, 6773, 6774, 6775, 6776, 6777, 6778, 6779, 6780, 6804, 6805, 6806, 6807, 6808, 6809
6810, 6811, 6812, 6813, 6835, 6836, 6837, 6838, 6839, 6840, 6841, 6842, 6843, 6844, 6845, 6846
6867, 6868, 6869, 6870, 6871, 6872, 6873, 6874, 6875, 6876, 6877, 6878, 6899, 6900, 6901, 6902
6903, 6904, 6905, 6906, 6907, 6908, 6909, 6910, 6931, 6932, 6933, 6934, 6935, 6936, 6937, 6938
6939, 6940, 6941, 6942, 6963, 6964, 6965, 6966, 6967, 6968, 6969, 6970, 6971, 6972, 6973, 6974
6995, 6996, 6997, 6998, 6999, 7000, 7001, 7002, 7003, 7004, 7005, 7006, 7028, 7029, 7030, 7031
7032, 7033, 7034, 7035, 7036, 7037, 7061, 7062, 7063, 7064, 7065, 7066, 7067, 7068, 7094, 7095
7096, 7097, 7098, 7099, 7896, 7897, 7927, 7928, 7929, 7930, 7959, 7960, 7961, 7962, 7992, 7993
*****************
*** NODE SETS ***
*****************
** AllNodes - Node set containing all elements
*NSet, NSet=AllNodes, Generate
1, 9801, 1
*****************
*** MATERIALS ***
*****************
*Material, Name=Mat0
*Elastic
3e+09, 0.2
*Expansion
6.5e-06
*Material, Name=Mat1
*Elastic, type=ENGINEERING CONSTANTS
2e+11, 1e+10, 1e+10, 0.3, 0.4, 0.4, 5e+09, 5e+09
5e+09
*Expansion, type=ORTHO
-2e-07, 3e-06, 3e-06
*Solid Section, ElSet=Matrix, Material=Mat0
1.0,
*Solid Section, ElSet=Yarn0, Material=Mat1, Orientation=TexGenOrientations
1.0,
*Solid Section, ElSet=Yarn1, Material=Mat1, Orientation=TexGenOrientations
1.0,
*Solid Section, ElSet=Yarn2, Material=Mat1, Orientation=TexGenOrientations
1.0,
*Solid Section, ElSet=Yarn3, Material=Mat1, Orientation=TexGenOrientations
1.0,
************************************
*** PERIODIC BOUNDARY CONDITIONS ***
************************************
*** ConstraintsDriver0 = e_x
*** ConstraintsDriver1 = e_y
*** ConstraintsDriver2 = e_z
*** ConstraintsDriver3 = e_xy
*** ConstraintsDriver4 = e_xz
*** ConstraintsDriver5 = e_yz
*Node
9802, 0, 0, 0
*NSet, NSet=ConstraintsDriver0
9802
*Node
9803, 0, 0, 0
*NSet, NSet=ConstraintsDriver1
9803
*Node
9804, 0, 0, 0
*NSet, NSet=ConstraintsDriver2
9804
*Node
9805, 0, 0, 0
*NSet, NSet=ConstraintsDriver3
9805
*Node
9806, 0, 0, 0
*NSet, NSet=ConstraintsDriver4
9806
*Node
9807, 0, 0, 0
*NSet, NSet=ConstraintsDriver5
9807
*NSet, NSet=FaceA, Unsorted
1155, 1188, 1221, 1254, 1287, 1320, 1353, 1386, 1419, 1452, 1485, 1518, 1551, 1584, 1617, 1650
1683, 1716, 1749, 1782, 1815, 1848, 1881, 1914, 1947, 1980, 2013, 2046, 2079, 2112, 2145, 2244
2277, 2310, 2343, 2376, 2409, 2442, 2475, 2508, 2541, 2574, 2607, 2640, 2673, 2706, 2739, 2772
2805, 2838, 2871, 2904, 2937, 2970, 3003, 3036, 3069, 3102, 3135, 3168, 3201, 3234, 3333, 3366
3399, 3432, 3465, 3498, 3531, 3564, 3597, 3630, 3663, 3696, 3729, 3762, 3795, 3828, 3861, 3894
3927, 3960, 3993, 4026, 4059, 4092, 4125, 4158, 4191, 4224, 4257, 4290, 4323, 4422, 4455, 4488
4521, 4554, 4587, 4620, 4653, 4686, 4719, 4752, 4785, 4818, 4851, 4884, 4917, 4950, 4983, 5016
5049, 5082, 5115, 5148, 5181, 5214, 5247, 5280, 5313, 5346, 5379, 5412, 5511, 5544, 5577, 5610
5643, 5676, 5709, 5742, 5775, 5808, 5841, 5874, 5907, 5940, 5973, 6006, 6039, 6072, 6105, 6138
6171, 6204, 6237, 6270, 6303, 6336, 6369, 6402, 6435, 6468, 6501, 6600, 6633, 6666, 6699, 6732
6765, 6798, 6831, 6864, 6897, 6930, 6963, 6996, 7029, 7062, 7095, 7128, 7161, 7194, 7227, 7260
7293, 7326, 7359, 7392, 7425, 7458, 7491, 7524, 7557, 7590, 7689, 7722, 7755, 7788, 7821, 7854
7887, 7920, 7953, 7986, 8019, 8052, 8085, 8118, 8151, 8184, 8217, 8250, 8283, 8316, 8349, 8382
8415, 8448, 8481, 8514, 8547, 8580, 8613, 8646, 8679
*NSet, NSet=FaceB, Unsorted
1123, 1156, 1189, 1222, 1255, 1288, 1321, 1354, 1387, 1420, 1453, 1486, 1519, 1552, 1585, 1618
1651, 1684, 1717, 1750, 1783, 1816, 1849, 1882, 1915, 1948, 1981, 2014, 2047, 2080, 2113, 2212
2245, 2278, 2311, 2344, 2377, 2410, 2443, 2476, 2509, 2542, 2575, 2608, 2641, 2674, 2707, 2740
2773, 2806, 2839, 2872, 2905, 2938, 2971, 3004, 3037, 3070, 3103, 3136, 3169, 3202, 3301, 3334
3367, 3400, 3433, 3466, 3499, 3532, 3565, 3598, 3631, 3664, 3697, 3730, 3763, 3796, 3829, 3862
3895, 3928, 3961, 3994, 4027, 4060, 4093, 4126, 4159, 4192, 4225, 4258, 4291, 4390, 4423, 4456
4489, 4522, 4555, 4588, 4621, 4654, 4687, 4720, 4753, 4786, 4819, 4852, 4885, 4918, 4951, 4984
5017, 5050, 5083, 5116, 5149, 5182, 5215, 5248, 5281, 5314, 5347, 5380, 5479, 5512, 5545, 5578
5611, 5644, 5677, 5710, 5743, 5776, 5809, 5842, 5875, 5908, 5941, 5974, 6007, 6040, 6073, 6106
6139, 6172, 6205, 6238, 6271, 6304, 6337, 6370, 6403, 6436, 6469, 6568, 6601, 6634, 6667, 6700
6733, 6766, 6799, 6832, 6865, 6898, 6931, 6964, 6997, 7030, 7063, 7096, 7129, 7162, 7195, 7228
7261, 7294, 7327, 7360, 7393, 7426, 7459, 7492, 7525, 7558, 7657, 7690, 7723, 7756, 7789, 7822
7855, 7888, 7921, 7954, 7987, 8020, 8053, 8086, 8119, 8152, 8185, 8218, 8251, 8284, 8317, 8350
8383, 8416, 8449, 8482, 8515, 8548, 8581, 8614, 8647
*NSet, NSet=FaceC, Unsorted
2147, 2148, 2149, 2150, 2151, 2152, 2153, 2154, 2155, 2156, 2157, 2158, 2159, 2160, 2161, 2162
2163, 2164, 2165, 2166, 2167, 2168, 2169, 2170, 2171, 2172, 2173, 2174, 2175, 2176, 2177, 3236
3237, 3238, 3239, 3240, 3241, 3242, 3243, 3244, 3245, 3246, 3247, 3248, 3249, 3250, 3251, 3252
3253, 3254, 3255, 3256, 3257, 3258, 3259, 3260, 3261, 3262, 3263, 3264, 3265, 3266, 4325, 4326
4327, 4328, 4329, 4330, 4331, 4332, 4333, 4334, 4335, 4336, 4337, 4338, 4339, 4340, 4341, 4342
4343, 4344, 4345, 4346, 4347, 4348, 4349, 4350, 4351, 4352, 4353, 4354, 4355, 5414, 5415, 5416
5417, 5418, 5419, 5420, 5421, 5422, 5423, 5424, 5425, 5426, 5427, 5428, 5429, 5430, 5431, 5432
5433, 5434, 5435, 5436, 5437, 5438, 5439, 5440, 5441, 5442, 5443, 5444, 6503, 6504, 6505, 6506
6507, 6508, 6509, 6510, 6511, 6512, 6513, 6514, 6515, 6516, 6517, 6518, 6519, 6520, 6521, 6522
6523, 6524, 6525, 6526, 6527, 6528, 6529, 6530, 6531, 6532, 6533, 7592, 7593, 7594, 7595, 7596
7597, 7598, 7599, 7600, 7601, 7602, 7603, 7604, 7605, 7606, 7607, 7608, 7609, 7610, 7611, 7612
7613, 7614, 7615, 7616, 7617, 7618, 7619, 7620, 7621, 7622, 8681, 8682, 8683, 8684, 8685, 8686
8687, 8688, 8689, 8690, 8691, 8692, 8693, 8694, 8695, 8696, 8697, 8698, 8699, 8700, 8701, 8702
8703, 8704, 8705, 8706, 8707, 8708, 8709, 8710, 8711
*NSet, NSet=FaceD, Unsorted
1091, 1092, 1093, 1094, 1095, 1096, 1097, 1098, 1099, 1100, 1101, 1102, 1103, 1104, 1105, 1106
1107, 1108, 1109, 1110, 1111, 1112, 1113, 1114, 1115, 1116, 1117, 1118, 1119, 1120, 1121, 2180
2181, 2182, 2183, 2184, 2185, 2186, 2187, 2188, 2189, 2190, 2191, 2192, 2193, 2194, 2195, 2196
2197, 2198, 2199, 2200, 2201, 2202, 2203, 2204, 2205, 2206, 2207, 2208, 2209, 2210, 3269, 3270
3271, 3272, 3273, 3274, 3275, 3276, 3277, 3278, 3279, 3280, 3281, 3282, 3283, 3284, 3285, 3286
3287, 3288, 3289, 3290, 3291, 3292, 3293, 3294, 3295, 3296, 3297, 3298, 3299, 4358, 4359, 4360
4361, 4362, 4363, 4364, 4365, 4366, 4367, 4368, 4369, 4370, 4371, 4372, 4373, 4374, 4375, 4376
4377, 4378, 4379, 4380, 4381, 4382, 4383, 4384, 4385, 4386, 4387, 4388, 5447, 5448, 5449, 5450
5451, 5452, 5453, 5454, 5455, 5456, 5457, 5458, 5459, 5460, 5461, 5462, 5463, 5464, 5465, 5466
5467, 5468, 5469, 5470, 5471, 5472, 5473, 5474, 5475, 5476, 5477, 6536, 6537, 6538, 6539, 6540
6541, 6542, 6543, 6544, 6545, 6546, 6547, 6548, 6549, 6550, 6551, 6552, 6553, 6554, 6555, 6556
6557, 6558, 6559, 6560, 6561, 6562, 6563, 6564, 6565, 6566, 7625, 7626, 7627, 7628, 7629, 7630
7631, 7632, 7633, 7634, 7635, 7636, 7637, 7638, 7639, 7640, 7641, 7642, 7643, 7644, 7645, 7646
7647, 7648, 7649, 7650, 7651, 7652, 7653, 7654, 7655
*NSet, NSet=FaceE, Unsorted
8747, 8748, 8749, 8750, 8751, 8752, 8753, 8754, 8755, 8756, 8757, 8758, 8759, 8760, 8761, 8762
8763, 8764, 8765, 8766, 8767, 8768, 8769, 8770, 8771, 8772, 8773, 8774, 8775, 8776, 8777, 8780
8781, 8782, 8783, 8784, 8785, 8786, 8787, 8788, 8789, 8790, 8791, 8792, 8793, 8794, 8795, 8796
8797, 8798, 8799, 8800, 8801, 8802, 8803, 8804, 8805, 8806, 8807, 8808, 8809, 8810, 8813, 8814
8815, 8816, 8817, 8818, 8819, 8820, 8821, 8822, 8823, 8824, 8825, 8826, 8827, 8828, 8829, 8830
8831, 8832, 8833, 8834, 8835, 8836, 8837, 8838, 8839, 8840, 8841, 8842, 8843, 8846, 8847, 8848
8849, 8850, 8851, 8852, 8853, 8854, 8855, 8856, 8857, 8858, 8859, 8860, 8861, 8862, 8863, 8864
8865, 8866, 8867, 8868, 8869, 8870, 8871, 8872, 8873, 8874, 8875, 8876, 8879, 8880, 8881, 8882
8883, 8884, 8885, 8886, 8887, 8888, 8889, 8890, 8891, 8892, 8893, 8894, 8895, 8896, 8897, 8898
8899, 8900, 8901, 8902, 8903, 8904, 8905, 8906, 8907, 8908, 8909, 8912, 8913, 8914, 8915, 8916
8917, 8918, 8919, 8920, 8921, 8922, 8923, 8924, 8925, 8926, 8927, 8928, 8929, 8930, 8931, 8932
8933, 8934, 8935, 8936, 8937, 8938, 8939, 8940, 8941, 8942, 8945, 8946, 8947, 8948, 8949, 8950
8951, 8952, 8953, 8954, 8955, 8956, 8957, 8958, 8959, 8960, 8961, 8962, 8963, 8964, 8965, 8966
8967, 8968, 8969, 8970, 8971, 8972, 8973, 8974, 8975, 8978, 8979, 8980, 8981, 8982, 8983, 8984
8985, 8986, 8987, 8988, 8989, 8990, 8991, 8992, 8993, 8994, 8995, 8996, 8997, 8998, 8999, 9000
9001, 9002, 9003, 9004, 9005, 9006, 9007, 9008, 9011, 9012, 9013, 9014, 9015, 9016, 9017, 9018
9019, 9020, 9021, 9022, 9023, 9024, 9025, 9026, 9027, 9028, 9029, 9030, 9031, 9032, 9033, 9034
9035, 9036, 9037, 9038, 9039, 9040, 9041, 9044, 9045, 9046, 9047, 9048, 9049, 9050, 9051, 9052
9053, 9054, 9055, 9056, 9057, 9058, 9059, 9060, 9061, 9062, 9063, 9064, 9065, 9066, 9067, 9068
9069, 9070, 9071, 9072, 9073, 9074, 9077, 9078, 9079, 9080, 9081, 9082, 9083, 9084, 9085, 9086
9087, 9088, 9089, 9090, 9091, 9092, 9093, 9094, 9095, 9096, 9097, 9098, 9099, 9100, 9101, 9102
9103, 9104, 9105, 9106, 9107, 9110, 9111, 9112, 9113, 9114, 9115, 9116, 9117, 9118, 9119, 9120
9121, 9122, 9123, 9124, 9125, 9126, 9127, 9128, 9129, 9130, 9131, 9132, 9133, 9134, 9135, 9136
9137, 9138, 9139, 9140, 9143, 9144, 9145, 9146, 9147, 9148, 9149, 9150, 9151, 9152, 9153, 9154
9155, 9156, 9157, 9158, 9159, 9160, 9161, 9162, 9163, 9164, 9165, 9166, 9167, 9168, 9169, 9170
9171, 9172, 9173, 9176, 9177, 9178, 9179, 9180, 9181, 9182, 9183, 9184, 9185, 9186, 9187, 9188
9189, 9190, 9191, 9192, 9193, 9194, 9195, 9196, 9197, 9198, 9199, 9200, 9201, 9202, 9203, 9204
9205, 9206, 9209, 9210, 9211, 9212, 9213, 9214, 9215, 9216, 9217, 9218, 9219, 9220, 9221, 9222
9223, 9224, 9225, 9226, 9227, 9228, 9229, 9230, 9231, 9232, 9233, 9234, 9235, 9236, 9237, 9238
9239, 9242, 9243, 9244, 9245, 9246, 9247, 9248, 9249, 9250, 9251, 9252, 9253, 9254, 9255, 9256
9257, 9258, 9259, 9260, 9261, 9262, 9263, 9264, 9265, 9266, 9267, 9268, 9269, 9270, 9271, 9272
9275, 9276, 9277, 9278, 9279, 9280, 9281, 9282, 9283, 9284, 9285, 9286, 9287, 9288, 9289, 9290
9291, 9292, 9293, 9294, 9295, 9296, 9297, 9298, 9299, 9300, 9301, 9302, 9303, 9304, 9305, 9308
9309, 9310, 9311, 9312, 9313, 9314, 9315, 9316, 9317, 9318, 9319, 9320, 9321, 9322, 9323, 9324
9325, 9326, 9327, 9328, 9329, 9330, 9331, 9332, 9333, 9334, 9335, 9336, 9337, 9338, 9341, 9342
9343, 9344, 9345, 9346, 9347, 9348, 9349, 9350, 9351, 9352, 9353, 9354, 9355, 9356, 9357, 9358
9359, 9360, 9361, 9362, 9363, 9364, 9365, 9366, 9367, 9368, 9369, 9370, 9371, 9374, 9375, 9376
9377, 9378, 9379, 9380, 9381, 9382, 9383, 9384, 9385, 9386, 9387, 9388, 9389, 9390, 9391, 9392
9393, 9394, 9395, 9396, 9397, 9398, 9399, 9400, 9401, 9402, 9403, 9404, 9407, 9408, 9409, 9410
9411, 9412, 9413, 9414, 9415, 9416, 9417, 9418, 9419, 9420, 9421, 9422, 9423, 9424, 9425, 9426
9427, 9428, 9429, 9430, 9431, 9432, 9433, 9434, 9435, 9436, 9437, 9440, 9441, 9442, 9443, 9444
9445, 9446, 9447, 9448, 9449, 9450, 9451, 9452, 9453, 9454, 9455, 9456, 9457, 9458, 9459, 9460
9461, 9462, 9463, 9464, 9465, 9466, 9467, 9468, 9469, 9470, 9473, 9474, 9475, 9476, 9477, 9478
9479, 9480, 9481, 9482, 9483, 9484, 9485, 9486, 9487, 9488, 9489, 9490, 9491, 9492, 9493, 9494
9495, 9496, 9497, 9498, 9499, 9500, 9501, 9502, 9503, 9506, 9507, 9508, 9509, 9510, 9511, 9512
9513, 9514, 9515, 9516, 9517, 9518, 9519, 9520, 9521, 9522, 9523, 9524, 9525, 9526, 9527, 9528
9529, 9530, 9531, 9532, 9533, 9534, 9535, 9536, 9539, 9540, 9541, 9542, 9543, 9544, 9545, 9546
9547, 9548, 9549, 9550, 9551, 9552, 9553, 9554, 9555, 9556, 9557, 9558, 9559, 9560, 9561, 9562
9563, 9564, 9565, 9566, 9567, 9568, 9569, 9572, 9573, 9574, 9575, 9576, 9577, 9578, 9579, 9580
9581, 9582, 9583, 9584, 9585, 9586, 9587, 9588, 9589, 9590, 9591, 9592, 9593, 9594, 9595, 9596
9597, 9598, 9599, 9600, 9601, 9602, 9605, 9606, 9607, 9608, 9609, 9610, 9611, 9612, 9613, 9614
9615, 9616, 9617, 9618, 9619, 9620, 9621, 9622, 9623, 9624, 9625, 9626, 9627, 9628, 9629, 9630
9631, 9632, 9633, 9634, 9635, 9638, 9639, 9640, 9641, 9642, 9643, 9644, 9645, 9646, 9647, 9648
9649, 9650, 9651, 9652, 9653, 9654, 9655, 9656, 9657, 9658, 9659, 9660, 9661, 9662, 9663, 9664
9665, 9666, 9667, 9668, 9671, 9672, 9673, 9674, 9675, 9676, 9677, 9678, 9679, 9680, 9681, 9682
9683, 9684, 9685, 9686, 9687, 9688, 9689, 9690, 9691, 9692, 9693, 9694, 9695, 9696, 9697, 9698
9699, 9700, 9701, 9704, 9705, 9706, 9707, 9708, 9709, 9710, 9711, 9712, 9713, 9714, 9715, 9716
9717, 9718, 9719, 9720, 9721, 9722, 9723, 9724, 9725, 9726, 9727, 9728, 9729, 9730, 9731, 9732
9733, 9734, 9737, 9738, 9739, 9740, 9741, 9742, 9743, 9744, 9745, 9746, 9747, 9748, 9749, 9750
9751, 9752, 9753, 9754, 9755, 9756, 9757, 9758, 9759, 9760, 9761, 9762, 9763, 9764, 9765, 9766
9767
*NSet, NSet=FaceF, Unsorted
35, 36, 37, 38, 39, 40, 41, 42, 43, 44, 45, 46, 47, 48, 49, 50
51, 52, 53, 54, 55, 56, 57, 58, 59, 60, 61, 62, 63, 64, 65, 68
69, 70, 71, 72, 73, 74, 75, 76, 77, 78, 79, 80, 81, 82, 83, 84
85, 86, 87, 88, 89, 90, 91, 92, 93, 94, 95, 96, 97, 98, 101, 102
103, 104, 105, 106, 107, 108, 109, 110, 111, 112, 113, 114, 115, 116, 117, 118
119, 120, 121, 122, 123, 124, 125, 126, 127, 128, 129, 130, 131, 134, 135, 136
137, 138, 139, 140, 141, 142, 143, 144, 145, 146, 147, 148, 149, 150, 151, 152
153, 154, 155, 156, 157, 158, 159, 160, 161, 162, 163, 164, 167, 168, 169, 170
171, 172, 173, 174, 175, 176, 177, 178, 179, 180, 181, 182, 183, 184, 185, 186
187, 188, 189, 190, 191, 192, 193, 194, 195, 196, 197, 200, 201, 202, 203, 204
205, 206, 207, 208, 209, 210, 211, 212, 213, 214, 215, 216, 217, 218, 219, 220
221, 222, 223, 224, 225, 226, 227, 228, 229, 230, 233, 234, 235, 236, 237, 238
239, 240, 241, 242, 243, 244, 245, 246, 247, 248, 249, 250, 251, 252, 253, 254
255, 256, 257, 258, 259, 260, 261, 262, 263, 266, 267, 268, 269, 270, 271, 272
273, 274, 275, 276, 277, 278, 279, 280, 281, 282, 283, 284, 285, 286, 287, 288
289, 290, 291, 292, 293, 294, 295, 296, 299, 300, 301, 302, 303, 304, 305, 306
307, 308, 309, 310, 311, 312, 313, 314, 315, 316, 317, 318, 319, 320, 321, 322
323, 324, 325, 326, 327, 328, 329, 332, 333, 334, 335, 336, 337, 338, 339, 340
341, 342, 343, 344, 345, 346, 347, 348, 349, 350, 351, 352, 353, 354, 355, 356
357, 358, 359, 360, 361, 362, 365, 366, 367, 368, 369, 370, 371, 372, 373, 374
375, 376, 377, 378, 379, 380, 381, 382, 383, 384, 385, 386, 387, 388, 389, 390
391, 392, 393, 394, 395, 398, 399, 400, 401, 402, 403, 404, 405, 406, 407, 408
409, 410, 411, 412, 413, 414, 415, 416, 417, 418, 419, 420, 421, 422, 423, 424
425, 426, 427, 428, 431, 432, 433, 434, 435, 436, 437, 438, 439, 440, 441, 442
443, 444, 445, 446, 447, 448, 449, 450, 451, 452, 453, 454, 455, 456, 457, 458
459, 460, 461, 464, 465, 466, 467, 468, 469, 470, 471, 472, 473, 474, 475, 476
477, 478, 479, 480, 481, 482, 483, 484, 485, 486, 487, 488, 489, 490, 491, 492
493, 494, 497, 498, 499, 500, 501, 502, 503, 504, 505, 506, 507, 508, 509, 510
511, 512, 513, 514, 515, 516, 517, 518, 519, 520, 521, 522, 523, 524, 525, 526
527, 530, 531, 532, 533, 534, 535, 536, 537, 538, 539, 540, 541, 542, 543, 544
545, 546, 547, 548, 549, 550, 551, 552, 553, 554, 555, 556, 557, 558, 559, 560
563, 564, 565, 566, 567, 568, 569, 570, 571, 572, 573, 574, 575, 576, 577, 578
579, 580, 581, 582, 583, 584, 585, 586, 587, 588, 589, 590, 591, 592, 593, 596
597, 598, 599, 600, 601, 602, 603, 604, 605, 606, 607, 608, 609, 610, 611, 612
613, 614, 615, 616, 617, 618, 619, 620, 621, 622, 623, 624, 625, 626, 629, 630
631, 632, 633, 634, 635, 636, 637, 638, 639, 640, 641, 642, 643, 644, 645, 646
647, 648, 649, 650, 651, 652, 653, 654, 655, 656, 657, 658, 659, 662, 663, 664
665, 666, 667, 668, 669, 670, 671, 672, 673, 674, 675, 676, 677, 678, 679, 680
681, 682, 683, 684, 685, 686, 687, 688, 689, 690, 691, 692, 695, 696, 697, 698
699, 700, 701, 702, 703, 704, 705, 706, 707, 708, 709, 710, 711, 712, 713, 714
715, 716, 717, 718, 719, 720, 721, 722, 723, 724, 725, 728, 729, 730, 731, 732
733, 734, 735, 736, 737, 738, 739, 740, 741, 742, 743, 744, 745, 746, 747, 748
749, 750, 751, 752, 753, 754, 755, 756, 757, 758, 761, 762, 763, 764, 765, 766
767, 768, 769, 770, 771, 772, 773, 774, 775, 776, 777, 778, 779, 780, 781, 782
783, 784, 785, 786, 787, 788, 789, 790, 791, 794, 795, 796, 797, 798, 799, 800
801, 802, 803, 804, 805, 806, 807, 808, 809, 810, 811, 812, 813, 814, 815, 816
817, 818, 819, 820, 821, 822, 823, 824, 827, 828, 829, 830, 831, 832, 833, 834
835, 836, 837, 838, 839, 840, 841, 842, 843, 844, 845, 846, 847, 848, 849, 850
851, 852, 853, 854, 855, 856, 857, 860, 861, 862, 863, 864, 865, 866, 867, 868
869, 870, 871, 872, 873, 874, 875, 876, 877, 878, 879, 880, 881, 882, 883, 884
885, 886, 887, 888, 889, 890, 893, 894, 895, 896, 897, 898, 899, 900, 901, 902
903, 904, 905, 906, 907, 908, 909, 910, 911, 912, 913, 914, 915, 916, 917, 918
919, 920, 921, 922, 923, 926, 927, 928, 929, 930, 931, 932, 933, 934, 935, 936
937, 938, 939, 940, 941, 942, 943, 944, 945, 946, 947, 948, 949, 950, 951, 952
953, 954, 955, 956, 959, 960, 961, 962, 963, 964, 965, 966, 967, 968, 969, 970
971, 972, 973, 974, 975, 976, 977, 978, 979, 980, 981, 982, 983, 984, 985, 986
987, 988, 989, 992, 993, 994, 995, 996, 997, 998, 999, 1000, 1001, 1002, 1003, 1004
1005, 1006, 1007, 1008, 1009, 1010, 1011, 1012, 1013, 1014, 1015, 1016, 1017, 1018, 1019, 1020
1021, 1022, 1025, 1026, 1027, 1028, 1029, 1030, 1031, 1032, 1033, 1034, 1035, 1036, 1037, 1038
1039, 1040, 1041, 1042, 1043, 1044, 1045, 1046, 1047, 1048, 1049, 1050, 1051, 1052, 1053, 1054
1055
*NSet, NSet=Edge1, Unsorted
1090, 2179, 3268, 4357, 5446, 6535, 7624
*NSet, NSet=Edge2, Unsorted
1122, 2211, 3300, 4389, 5478, 6567, 7656
*NSet, NSet=Edge3, Unsorted
2178, 3267, 4356, 5445, 6534, 7623, 8712
*NSet, NSet=Edge4, Unsorted
2146, 3235, 4324, 5413, 6502, 7591, 8680
*NSet, NSet=Edge5, Unsorted
34, 67, 100, 133, 166, 199, 232, 265, 298, 331, 364, 397, 430, 463, 496, 529
562, 595, 628, 661, 694, 727, 760, 793, 826, 859, 892, 925, 958, 991, 1024
*NSet, NSet=Edge6, Unsorted
66, 99, 132, 165, 198, 231, 264, 297, 330, 363, 396, 429, 462, 495, 528, 561
594, 627, 660, 693, 726, 759, 792, 825, 858, 891, 924, 957, 990, 1023, 1056
*NSet, NSet=Edge7, Unsorted
8778, 8811, 8844, 8877, 8910, 8943, 8976, 9009, 9042, 9075, 9108, 9141, 9174, 9207, 9240, 9273
9306, 9339, 9372, 9405, 9438, 9471, 9504, 9537, 9570, 9603, 9636, 9669, 9702, 9735, 9768
*NSet, NSet=Edge8, Unsorted
8746, 8779, 8812, 8845, 8878, 8911, 8944, 8977, 9010, 9043, 9076, 9109, 9142, 9175, 9208, 9241
9274, 9307, 9340, 9373, 9406, 9439, 9472, 9505, 9538, 9571, 9604, 9637, 9670, 9703, 9736
*NSet, NSet=Edge9, Unsorted
2, 3, 4, 5, 6, 7, 8, 9, 10, 11, 12, 13, 14, 15, 16, 17
18, 19, 20, 21, 22, 23, 24, 25, 26, 27, 28, 29, 30, 31, 32
*NSet, NSet=Edge10, Unsorted
1058, 1059, 1060, 1061, 1062, 1063, 1064, 1065, 1066, 1067, 1068, 1069, 1070, 1071, 1072, 1073
1074, 1075, 1076, 1077, 1078, 1079, 1080, 1081, 1082, 1083, 1084, 1085, 1086, 1087, 1088
*NSet, NSet=Edge11, Unsorted
9770, 9771, 9772, 9773, 9774, 9775, 9776, 9777, 9778, 9779, 9780, 9781, 9782, 9783, 9784, 9785
9786, 9787, 9788, 9789, 9790, 9791, 9792, 9793, 9794, 9795, 9796, 9797, 9798, 9799, 9800
*NSet, NSet=Edge12, Unsorted
8714, 8715, 8716, 8717, 8718, 8719, 8720, 8721, 8722, 8723, 8724, 8725, 8726, 8727, 8728, 8729
8730, 8731, 8732, 8733, 8734, 8735, 8736, 8737, 8738, 8739, 8740, 8741, 8742, 8743, 8744
*NSet, NSet=MasterNode1, Unsorted
1
*NSet, NSet=MasterNode2, Unsorted
33
*NSet, NSet=MasterNode3, Unsorted
1089
*NSet, NSet=MasterNode4, Unsorted
1057
*NSet, NSet=MasterNode5, Unsorted
8713
*NSet, NSet=MasterNode6, Unsorted
8745
*NSet, NSet=MasterNode7, Unsorted
9801
*NSet, NSet=MasterNode8, Unsorted
9769
***************************
*** BOUNDARY CONDITIONS ***
***************************
*** Name: Translation stop Vertex 1 Type: Displacement/Rotation
*Boundary
MasterNode1, 1, 1
MasterNode1, 2, 2
MasterNode1, 3, 3

*****************
*** EQUATIONS ***
*****************
*Equation
3
FaceA, 1, 1.0, FaceB, 1, -1.0, ConstraintsDriver0, 1, -2
*Equation
2
FaceA, 2, 1.0, FaceB, 2, -1.0
*Equation
2
FaceA, 3, 1.0, FaceB, 3, -1.0
*Equation
3
FaceC, 1, 1.0, FaceD, 1, -1.0, ConstraintsDriver3, 1, -2
*Equation
3
FaceC, 2, 1.0, FaceD, 2, -1.0, ConstraintsDriver1, 1, -2
*Equation
2
FaceC, 3, 1.0, FaceD, 3, -1.0
*Equation
3
FaceE, 1, 1.0, FaceF, 1, -1.0, ConstraintsDriver4, 1, -0.22
*Equation
3
FaceE, 2, 1.0, FaceF, 2, -1.0, ConstraintsDriver5, 1, -0.22
*Equation
3
FaceE, 3, 1.0, FaceF, 3, -1.0, ConstraintsDriver2, 1, -0.22
*Equation
3
Edge2, 1, 1.0, Edge1, 1, -1.0, ConstraintsDriver0, 1, -2
*Equation
2
Edge2, 2, 1.0, Edge1, 2, -1.0
*Equation
2
Edge2, 3, 1.0, Edge1, 3, -1.0
*Equation
4
Edge3, 1, 1.0, Edge1, 1, -1.0, ConstraintsDriver0, 1, -2, ConstraintsDriver3, 1, -2
*Equation
3
Edge3, 2, 1.0, Edge1, 2, -1.0, ConstraintsDriver1, 1, -2
*Equation
2
Edge3, 3, 1.0, Edge1, 3, -1.0
*Equation
3
Edge4, 1, 1.0, Edge1, 1, -1.0, ConstraintsDriver3, 1, -2
*Equation
3
Edge4, 2, 1.0, Edge1, 2, -1.0, ConstraintsDriver1, 1, -2
*Equation
2
Edge4, 3, 1.0, Edge1, 3, -1.0
*Equation
3
Edge6, 1, 1.0, Edge5, 1, -1.0, ConstraintsDriver0, 1, -2
*Equation
2
Edge6, 2, 1.0, Edge5, 2, -1.0
*Equation
2
Edge6, 3, 1.0, Edge5, 3, -1.0
*Equation
4
Edge7, 1, 1.0, Edge5, 1, -1.0, ConstraintsDriver4, 1, -0.22, ConstraintsDriver0, 1, -2
*Equation
3
Edge7, 2, 1.0, Edge5, 2, -1.0, ConstraintsDriver5, 1, -0.22
*Equation
3
Edge7, 3, 1.0, Edge5, 3, -1.0, ConstraintsDriver2, 1, -0.22
*Equation
3
Edge8, 1, 1.0, Edge5, 1, -1.0, ConstraintsDriver4, 1, -0.22
*Equation
3
Edge8, 2, 1.0, Edge5, 2, -1.0, ConstraintsDriver5, 1, -0.22
*Equation
3
Edge8, 3, 1.0, Edge5, 3, -1.0, ConstraintsDriver2, 1, -0.22
*Equation
3
Edge10, 1, 1.0, Edge9, 1, -1.0, ConstraintsDriver3, 1, -2
*Equation
3
Edge10, 2, 1.0, Edge9, 2, -1.0, ConstraintsDriver1, 1, -2
*Equation
2
Edge10, 3, 1.0, Edge9, 3, -1.0
*Equation
4
Edge11, 1, 1.0, Edge9, 1, -1.0, ConstraintsDriver3, 1, -2, ConstraintsDriver4, 1, -0.22
*Equation
4
Edge11, 2, 1.0, Edge9, 2, -1.0, ConstraintsDriver1, 1, -2, ConstraintsDriver5, 1, -0.22
*Equation
3
Edge11, 3, 1.0, Edge9, 3, -1.0, ConstraintsDriver2, 1, -0.22
*Equation
3
Edge12, 1, 1.0, Edge9, 1, -1.0, ConstraintsDriver4, 1, -0.22
*Equation
3
Edge12, 2, 1.0, Edge9, 2, -1.0, ConstraintsDriver5, 1, -0.22
*Equation
3
Edge12, 3, 1.0, Edge9, 3, -1.0, ConstraintsDriver2, 1, -0.22
*Equation
3
MasterNode2, 1, 1.0, MasterNode1, 1, -1.0, ConstraintsDriver0, 1, -2
*Equation
2
MasterNode2, 2, 1.0, MasterNode1, 2, -1.0
*Equation
2
MasterNode2, 3, 1.0, MasterNode1, 3, -1.0
*Equation
4
MasterNode3, 1, 1.0, MasterNode1, 1, -1.0, ConstraintsDriver0, 1, -2, ConstraintsDriver3, 1, -2
*Equation
3
MasterNode3, 2, 1.0, MasterNode1, 2, -1.0, ConstraintsDriver1, 1, -2
*Equation
2
MasterNode3, 3, 1.0, MasterNode1, 3, -1.0
*Equation
3
MasterNode4, 1, 1.0, MasterNode1, 1, -1.0, ConstraintsDriver3, 1, -2
*Equation
3
MasterNode4, 2, 1.0, MasterNode1, 2, -1.0, ConstraintsDriver1, 1, -2
*Equation
2
MasterNode4, 3, 1.0, MasterNode1, 3, -1.0
*Equation
3
MasterNode5, 1, 1.0, MasterNode1, 1, -1.0, ConstraintsDriver4, 1, -0.22
*Equation
3
MasterNode5, 2, 1.0, MasterNode1, 2, -1.0, ConstraintsDriver5, 1, -0.22
*Equation
3
MasterNode5, 3, 1.0, MasterNode1, 3, -1.0, ConstraintsDriver2, 1, -0.22
*Equation
4
MasterNode6, 1, 1.0, MasterNode1, 1, -1.0, ConstraintsDriver4, 1, -0.22, ConstraintsDriver0, 1, -2
*Equation
3
MasterNode6, 2, 1.0, MasterNode1, 2, -1.0, ConstraintsDriver5, 1, -0.22
*Equation
3
MasterNode6, 3, 1.0, MasterNode1, 3, -1.0, ConstraintsDriver2, 1, -0.22
*Equation
5
MasterNode7, 1, 1.0, MasterNode1, 1, -1.0, ConstraintsDriver0, 1, -2, ConstraintsDriver4, 1, -0.22,
ConstraintsDriver3, 1, -2
*Equation
4
MasterNode7, 2, 1.0, MasterNode1, 2, -1.0, ConstraintsDriver1, 1, -2, ConstraintsDriver5, 1, -0.22
*Equation
3
MasterNode7, 3, 1.0, MasterNode1, 3, -1.0, ConstraintsDriver2, 1, -0.22
*Equation
4
MasterNode8, 1, 1.0, MasterNode1, 1, -1.0, ConstraintsDriver3, 1, -2, ConstraintsDriver4, 1, -0.22
*Equation
4
MasterNode8, 2, 1.0, MasterNode1, 2, -1.0, ConstraintsDriver1, 1, -2, ConstraintsDriver5, 1, -0.22
*Equation
3
MasterNode8, 3, 1.0, MasterNode1, 3, -1.0, ConstraintsDriver2, 1, -0.22
*******************
*** CREATE STEP ***
*******************
*** PREDEFINED FIELDS ***
*** Name: Initial temperature 0ºC all cells   Type: Temperature ***
*Initial Conditions, type=TEMPERATURE
AllNodes, 0.

*Step, Name=Isothermal linear perturbation step, perturbation
Elastic material property computation
*Static

***********************
*** OUTPUT REQUESTS ***
***********************
*Output, field
*Element Output, directions=YES
S,
*** FIELD OUTPUT: Output Request Fx ***
*Node Output, nset=ConstraintsDriver0
U,
*** FIELD OUTPUT: Output Request Fy ***
*Node Output, nset=ConstraintsDriver1
U,
*** FIELD OUTPUT: Ouput Request Fz ***
*Node Output, nset=ConstraintsDriver2
U,
*** FIELD OUTPUT: Output Request Shear_xy ***
*Node Output, nset=ConstraintsDriver3
U,
*** FIELD OUTPUT: Output Request Shear_zx ***
*Node Output, nset=ConstraintsDriver4
U,
*** FIELD OUTPUT: Output Request Shear_yz ***
*Node Output, nset=ConstraintsDriver5
U,

******************
*** LOAD CASES ***
******************
*Load Case, name=Load0
*Boundary, op=NEW
MasterNode1, 1, 1
MasterNode1, 2, 2
MasterNode1, 3, 3
*Cload
ConstraintsDriver0, 1, 0.88
*End Load Case

*Load Case, name=Load1
*Boundary, op=NEW
MasterNode1, 1, 1
MasterNode1, 2, 2
MasterNode1, 3, 3
*Cload
ConstraintsDriver1, 1, 0.88
*End Load Case

*Load Case, name=Load2
*Boundary, op=NEW
MasterNode1, 1, 1
MasterNode1, 2, 2
MasterNode1, 3, 3
*Cload
ConstraintsDriver2, 1, 0.88
*End Load Case

*Load Case, name=Load3
*Boundary, op=NEW
MasterNode1, 1, 1
MasterNode1, 2, 2
MasterNode1, 3, 3
*Cload
ConstraintsDriver3, 1, 0.88
*End Load Case

*Load Case, name=Load4
*Boundary, op=NEW
MasterNode1, 1, 1
MasterNode1, 2, 2
MasterNode1, 3, 3
*Cload
ConstraintsDriver4, 1, 0.88
*End Load Case

*Load Case, name=Load5
*Boundary, op=NEW
MasterNode1, 1, 1
MasterNode1, 2, 2
MasterNode1, 3, 3
*Cload
ConstraintsDriver5, 1, 0.88
*End Load Case


*End Step

*** STEP: Thermomechanical step ***
*Step, name=Thermomechanical step, perturbation
Coefficient of Thermal Expansion computation
*Static
*** PREDEFINED FIELDS ***
*** Name: Temperature steady 1ºC all cells   Type: Temperature ***
*Temperature
AllNodes, 1.
***********************
*** OUTPUT REQUESTS ***
***********************
*Output, field
*Element Output, directions=YES
S,
*** FIELD OUTPUT: Output Request Fx ***
*Node Output, nset=ConstraintsDriver0
U,
*** FIELD OUTPUT: Output Request Fy ***
*Node Output, nset=ConstraintsDriver1
U,
*** FIELD OUTPUT: Output Request Fz ***
*Node Output, nset=ConstraintsDriver2
U,
*End Step
